eval_id	interface	fy	E	b	cR1	cR2	a1	a3	stress.CovMultiplier	stress_1	stress_2	stress_3	stress_4	stress_5	stress_6	stress_7	stress_8	stress_9	stress_10	stress_11	stress_12	stress_13	stress_14	stress_15	stress_16	stress_17	stress_18	stress_19	stress_20	stress_21	stress_22	stress_23	stress_24	stress_25	stress_26	stress_27	stress_28	stress_29	stress_30	stress_31	stress_32	stress_33	stress_34	stress_35	stress_36	stress_37	stress_38	stress_39	stress_40	stress_41	stress_42	stress_43	stress_44	stress_45	stress_46	stress_47	stress_48	stress_49	stress_50	stress_51	stress_52	stress_53	stress_54	stress_55	stress_56	stress_57	stress_58	stress_59	stress_60	stress_61	stress_62	stress_63	stress_64	stress_65	stress_66	stress_67	stress_68	stress_69	stress_70	stress_71	stress_72	stress_73	stress_74	stress_75	stress_76	stress_77	stress_78	stress_79	stress_80	stress_81	stress_82	stress_83	stress_84	stress_85	stress_86	stress_87	stress_88	stress_89	stress_90	stress_91	stress_92	stress_93	stress_94	stress_95	stress_96	stress_97	stress_98	stress_99	stress_100	stress_101	stress_102	stress_103	stress_104	stress_105	stress_106	stress_107	stress_108	stress_109	stress_110	stress_111	stress_112	stress_113	stress_114	stress_115	stress_116	stress_117	stress_118	stress_119	stress_120	stress_121	stress_122	stress_123	stress_124	stress_125	stress_126	stress_127	stress_128	stress_129	stress_130	stress_131	stress_132	stress_133	stress_134	stress_135	stress_136	stress_137	stress_138	stress_139	stress_140	stress_141	stress_142	stress_143	stress_144	stress_145	stress_146	stress_147	stress_148	stress_149	stress_150	stress_151	stress_152	stress_153	stress_154	stress_155	stress_156	stress_157	stress_158	stress_159	stress_160	stress_161	stress_162	stress_163	stress_164	stress_165	stress_166	stress_167	stress_168	stress_169	stress_170	stress_171	stress_172	stress_173	stress_174	stress_175	stress_176	stress_177	stress_178	stress_179	stress_180	stress_181	stress_182	stress_183	stress_184	stress_185	stress_186	stress_187	stress_188	stress_189	stress_190	stress_191	stress_192	stress_193	stress_194	stress_195	stress_196	stress_197	stress_198	stress_199	stress_200	stress_201	stress_202	stress_203	stress_204	stress_205	stress_206	stress_207	stress_208	stress_209	stress_210	stress_211	stress_212	stress_213	stress_214	stress_215	stress_216	stress_217	stress_218	stress_219	stress_220	stress_221	stress_222	stress_223	stress_224	stress_225	stress_226	stress_227	stress_228	stress_229	stress_230	stress_231	stress_232	stress_233	stress_234	stress_235	stress_236	stress_237	stress_238	stress_239	stress_240	stress_241	stress_242	stress_243	stress_244	stress_245	stress_246	stress_247	stress_248	stress_249	stress_250	stress_251	stress_252	stress_253	stress_254	stress_255	stress_256	stress_257	stress_258	stress_259	stress_260	stress_261	stress_262	stress_263	stress_264	stress_265	stress_266	stress_267	stress_268	stress_269	stress_270	stress_271	stress_272	stress_273	stress_274	stress_275	stress_276	stress_277	stress_278	stress_279	stress_280	stress_281	stress_282	stress_283	stress_284	stress_285	stress_286	stress_287	stress_288	stress_289	stress_290	stress_291	stress_292	stress_293	stress_294	stress_295	stress_296	stress_297	stress_298	stress_299	stress_300	stress_301	stress_302	stress_303	stress_304	stress_305	stress_306	stress_307	stress_308	stress_309	stress_310	stress_311	stress_312	stress_313	stress_314	stress_315	stress_316	stress_317	stress_318	stress_319	stress_320	stress_321	stress_322	stress_323	stress_324	stress_325	stress_326	stress_327	stress_328	stress_329	stress_330	stress_331	stress_332	stress_333	stress_334	stress_335	stress_336	stress_337	stress_338	stress_339	stress_340	stress_341	stress_342	
1	1	519.52540157093	229172.50380826645	0.1957236684465528	0.26455561210462697	0.07190158011475721	0.05701967704178797	0.01589695836455197	3.3097057601206035	2.6706015008	-277.55135708	-596.51009934	-613.50835961	-249.75258533	292.38754537	503.67660986	504.52455647	228.88535206	-241.75745986	-617.36352901	-718.6824346	-783.10703735	-789.01318392	-419.79847556	-605.00167933	-801.24710555	-585.92672748	-182.97110613	280.15064014	415.55377926	512.38654326	581.00545027	609.93402005	239.95213335	381.21362924	540.49238979	581.36793475	445.76965808	204.17502216	-133.23592773	-490.92008162	-610.78496209	-714.28867622	-821.97905084	-929.52589057	-1032.4424886	-1126.4420109	-1207.6188024	-1272.5568804	-1318.5797331	-1343.7593355	-1326.7050053	-886.4522883	-498.20122658	-725.57976803	-1140.7421916	-808.18997593	-921.6913252	-1098.8484496	-1352.3427736	-1164.4107785	-759.63440603	-267.47929116	-114.58291469	-36.755372141	-2.2558092221	-97.508587443	-454.40785025	-967.06275075	-1241.9207688	-1318.3646759	-1343.2319418	-1044.1187399	-530.92526958	-357.37303843	-658.87536351	-1180.9418267	-1378.2890676	-1379.9837567	-1274.7287216	-1081.7897657	-806.47300035	-457.43654889	-179.52092455	-78.670922235	21.803846118	127.71562729	236.34057513	344.77981315	450.13793402	549.60032974	640.50523769	720.4346573	787.24106804	839.14675668	874.77337187	893.14469166	811.82546417	301.31539694	-23.428619963	296.83917491	759.52980011	774.15636372	707.75890171	587.89207989	415.81941954	193.20837168	-76.453472898	-309.46851184	-396.04501467	-474.34053444	-559.14862227	-649.97998261	-745.93956387	-846.08517177	-949.42939452	-1054.9512617	-1161.6082253	-1268.3513544	-1374.1294393	-1477.8911358	-1578.6166771	-1675.3155867	-1767.0315668	-1852.8608446	-1931.9485384	-2003.5244071	-2066.883697	-2121.3882185	-2166.5140264	-2201.8108715	-2226.9260628	-2241.621468	-2245.5696045	-2132.3833674	-1848.0710438	-1428.1109366	-1019.6506933	-898.09960699	-804.45755458	-731.56091235	-688.40176902	-685.76332573	-1141.9591486	-1168.3815853	-957.24134999	-997.09238585	-1188.6485149	-1554.0983423	-1968.7426647	-2090.5935018	-2184.9049467	-2256.2199413	-2293.4296009	-2270.9347154	-2006.0892197	-1559.2060413	-1073.5609032	-920.06009455	-861.4068168	-852.46362856	-1091.7440148	-1538.3964923	-2037.4678141	-2209.2682465	-2253.3026435	-2117.8057757	-1631.3819043	-1328.9515277	-1512.968798	-1996.9103273	-2279.4967055	-2294.2744618	-2248.2215596	-2157.3143275	-2022.1937609	-1843.681448	-1623.0558713	-1362.1943137	-1089.3585111	-954.32071472	-877.99291657	-798.79566863	-713.98684325	-623.99587286	-529.42231481	-430.8951716	-329.07988912	-224.66071539	-118.33374614	-10.816697775	97.171771198	204.90393268	311.65901999	416.71942418	519.37923437	618.95201999	714.76616588	806.18040544	892.58360082	973.38660633	1048.0588697	1116.0967064	1177.0343925	1230.4746517	1276.0475242	1313.4560286	1342.4496974	1362.8248912	1374.4522498	1375.021812	967.92963129	486.68264732	606.78989401	1107.4636509	1134.1510087	1062.6491875	932.64466792	745.57436739	503.56643007	214.08321759	20.528520295	-60.814412656	-144.78339646	-235.62512506	-332.40309593	-434.02195891	-539.32798751	-647.11984463	-756.17344746	-865.24711683	-973.10130045	-1078.5061108	-1180.2651892	-1277.2200832	-1368.2648609	-1452.3738796	-1528.5750528	-1596.0123329	-1653.920278	-1701.6242319	-1738.5992177	-1764.4210915	-1778.7850669	-1771.625947	-1361.2799753	-962.71557896	-1209.5091563	-1575.145606	-1201.0535795	-967.09340355	-1351.3294221	-1537.061673	-1750.9070257	-1545.9915148	-1133.3732102	-618.95417654	-386.42445366	-310.85835579	-280.69398282	-397.01117465	-765.93168747	-1279.6412303	-1637.8230019	-1718.141934	-1738.0287452	-1428.8310365	-915.82319085	-675.237635	-913.80048215	-1416.5577474	-1749.8906557	-1778.0877147	-1731.7231379	-1627.5711101	-1466.7735978	-1251.1060354	-982.88602961	-669.30163012	-434.02188941	-341.16397553	-253.86385528	-160.51012179	-61.741911361	41.373467528	147.71675613	256.12783199	365.42491728	474.41732517	581.91734991	686.75411414	787.78255333	883.9061189	974.07129118	1057.300534	1132.6882712	1199.4037978	1256.728231	1304.0361198	1340.8057169	1366.6451287	1381.2662549	1381.4821844	960.55485994	490.01526126	634.04697149	1127.0626202	1149.4642501	1101.4730069	1014.8829264	890.11316512	727.86684101	528.88066843	295.33855317	76.367464609	-13.973033313	-80.570666893	-151.83168876	-228.53049158	-310.32692159	-396.81526114	-487.55009782	-582.07340082	-679.90684495	-780.55174692	-883.49949151	-988.22674351	-1094.2012776	-1200.8880246	-1307.7432002	-1414.2273395	-1519.7968511	-1623.9164863	-1726.0627934	-1825.7108852	-1922.362877	-2015.516847	-2104.7094933	-2189.4885034	-2269.4176673	-2344.0980493	-2413.1446186	-2476.2106498	-2532.9826552	-2583.1555793	-2626.4905719	-2662.7607592	-2691.7804885	-2713.4083783	-2727.531844	-2734.0766513	
2	1	586.0757465489678	202889.49197529044	0.15983171284334474	0.7742336894342167	0.0874063907598683	0.043860151346232036	0.011037514116430515	0.7134275416162383	2.3643193348	-245.71999105	-621.58499636	-637.24268193	-315.2054051	164.89297044	449.69924618	451.72764549	207.70056088	-208.89662006	-609.60043678	-711.48301273	-758.87110788	-763.16214379	-436.33887471	-600.30173002	-770.93450493	-580.31007218	-224.79257501	190.16156797	437.91273133	545.26136456	603.03880037	625.773838	298.28276215	423.3434594	564.32236945	600.58516962	480.53833089	266.72534928	-28.387571512	-349.78298915	-570.71017476	-691.0669402	-780.41607728	-861.4611091	-936.9861431	-1005.3874624	-1064.2729182	-1111.3164431	-1144.6367823	-1162.861611	-1147.7631837	-758.36212224	-425.42775181	-626.72902484	-994.10516383	-699.80732178	-800.29158891	-957.13074725	-1173.5498175	-1007.1732228	-650.34254085	-232.55753108	22.613430376	127.64611947	163.18963308	78.861074928	-236.99346382	-677.93441942	-995.1932288	-1111.5905856	-1139.1470489	-874.36853949	-428.94244391	-289.51127602	-556.43245796	-1003.5529171	-1170.6786785	-1172.5667109	-1079.3830922	-908.60137659	-666.08928503	-372.73510788	-101.0740838	74.919819177	185.2124233	273.89369448	356.66921824	436.73797535	513.64185036	585.90339231	651.80877181	709.69707359	758.05477835	795.61534093	821.3915655	834.68227319	762.68928793	312.1147929	38.226141957	321.76351664	729.22812367	741.47018025	682.6876243	576.57068125	424.34359482	228.90192854	1.8734624397	-220.12795765	-388.16753866	-499.15148135	-581.99969926	-656.09468618	-728.95933506	-802.91298927	-878.36706911	-955.03129544	-1032.3422393	-1109.6276135	-1186.1686055	-1261.2258609	-1334.0730565	-1404.0001154	-1470.3190879	-1532.3785936	-1589.5618061	-1641.3126322	-1687.1220468	-1726.5289776	-1759.1548401	-1784.6742579	-1802.8323382	-1813.456976	-1816.3114384	-1716.1062789	-1464.5546621	-1100.96593	-743.35522778	-530.63206823	-420.50913233	-354.85051346	-319.46380026	-317.3525248	-721.085002	-744.41804232	-558.1428208	-593.42347731	-763.00444025	-1084.5215231	-1452.7912395	-1663.9654745	-1761.6887656	-1819.871058	-1848.462038	-1828.5470142	-1594.0973551	-1202.5163413	-806.19583938	-581.00968801	-492.12304024	-480.73030573	-692.5676106	-1086.902021	-1503.6554153	-1720.5778315	-1784.1519784	-1664.1951518	-1235.435223	-981.91252036	-1144.8254518	-1570.1963953	-1817.8599142	-1835.7700043	-1794.9987531	-1714.5177202	-1594.9102187	-1437.1396248	-1244.1659866	-1026.0536461	-809.89247887	-633.39411807	-508.71074666	-417.85947651	-341.60624835	-269.79113646	-198.22004323	-125.39310116	-50.946928467	25.005032242	102.14005442	180.02877334	258.19799939	336.14659314	413.36742453	489.34974451	563.58799779	635.58885074	704.86858688	770.96477288	833.436351	891.85790606	945.8462197	995.03738864	1039.0948808	1077.7316003	1110.6801651	1137.7259295	1158.6878578	1173.4187554	1181.8251189	1182.2369016	821.97529752	406.35998738	512.69254412	955.92327968	979.52370752	916.22220369	801.13322828	635.73850718	424.58722779	186.79654224	-27.280949815	-175.45213883	-274.62097108	-354.79042243	-430.40049949	-506.23196123	-583.43515693	-661.88550531	-740.9972041	-820.00148004	-898.06139092	-974.31655842	-1047.9167878	-1118.032444	-1183.8683739	-1244.6856178	-1299.7829081	-1348.5422864	-1390.4109516	-1424.9015256	-1451.6347109	-1470.3040203	-1480.6891962	-1474.3511314	-1111.221777	-764.68234895	-983.04815745	-1285.6990822	-954.68198299	-749.96342586	-1088.7075804	-1241.5435787	-1394.6938148	-1213.2834766	-849.96550609	-437.24338576	-184.87031674	-79.627738403	-46.595495639	-149.57257861	-475.85184364	-911.77598875	-1233.069753	-1366.0058263	-1393.7432575	-1120.0427826	-674.29339487	-484.36567516	-695.54475405	-1124.9072921	-1382.1843889	-1420.123383	-1379.0762021	-1286.8696706	-1144.5515888	-954.31946031	-723.33410423	-477.21843782	-267.30949606	-122.73396967	-22.519260644	59.953569413	137.56753032	214.85796509	293.03714152	372.0684785	451.43582507	530.43003538	608.26448288	684.12871642	757.21380162	826.73731869	891.94348602	952.1290361	1006.641363	1054.881198	1096.3296435	1130.5350556	1157.1205769	1175.8031057	1186.3744914	1186.5306127	814.04645318	407.89025942	535.40346467	971.74548786	991.47938461	948.99209501	872.3333082	761.89488785	618.5728353	444.96529073	250.80582304	61.039937045	-92.039637412	-200.27020926	-280.23615073	-348.36546039	-413.25779119	-478.51845713	-545.48045714	-614.53220308	-685.65407652	-758.64042687	-833.20047045	-908.99568119	-985.66270606	-1062.8266469	-1140.1012307	-1217.1005087	-1293.4339546	-1368.7161431	-1442.5696192	-1514.6155467	-1584.4943969	-1651.8435845	-1716.3283557	-1777.6218418	-1835.4087757	-1889.4008109	-1939.3196342	-1984.9146128	-2025.9591335	-2062.2326725	-2093.562565	-2119.7848005	-2140.7651672	-2156.4014574	-2166.6122806	-2171.3439707	
3	1	541.1053504286575	206804.4561093932	0.09229587245058637	0.45615033221654855	0.13952623918545298	0.09883738380592262	0.06563295894652735	3.32640548392289	2.4099413397	-250.46142256	-603.93076895	-612.51502236	-284.26309881	207.64928636	506.28118363	508.07512836	259.33928612	-165.46931248	-597.04201135	-663.57315837	-691.10620232	-693.62106126	-360.44302264	-527.56973657	-708.12983646	-513.82548959	-150.19917195	311.06644286	533.85029705	581.32874744	610.82221775	623.16329521	289.2929569	416.76683068	560.50332117	597.5390512	475.17564638	257.16151208	-47.349490541	-415.64755876	-632.64123955	-687.74394318	-734.02414099	-779.82111307	-823.61940832	-863.62017511	-898.16395356	-925.79748151	-945.38187539	-956.09670737	-940.70694016	-543.4245139	-192.68286151	-397.86845233	-772.49628943	-472.40235484	-574.8255706	-734.69149013	-966.85468808	-797.26552107	-431.99699472	38.172991057	336.7483725	392.09934751	408.30457786	322.34880801	0.28417981188	-464.39760057	-881.04366185	-989.44909492	-1004.7346692	-734.81597502	-271.60848763	-112.24864281	-384.32327182	-853.91923872	-1019.591022	-1020.6222293	-925.64045828	-751.53302783	-503.08832212	-187.13973786	167.19783404	361.60092136	418.53597442	464.53738276	510.84922318	557.00572016	601.84146224	644.16675833	682.8501986	716.86308716	745.29163669	767.37938315	782.53979387	790.3574532	716.9752702	256.29291258	-37.393732271	251.61479194	669.07566747	682.29428725	622.37745259	514.21005694	358.93230151	158.04780313	-86.299499587	-364.40752123	-584.40022015	-659.463177	-699.58076409	-738.65803513	-779.54896159	-822.17383134	-866.15234745	-911.05612061	-956.44260911	-1001.8656867	-1046.8780813	-1091.0324233	-1133.8947696	-1175.0436382	-1214.0720906	-1250.595539	-1284.2502006	-1314.70831	-1341.6699694	-1364.8636059	-1384.0662621	-1399.0863406	-1409.7737589	-1416.0271829	-1417.7072571	-1315.5683975	-1059.0059664	-679.95802928	-233.27968545	67.718466802	140.01441522	173.70181156	192.44804879	193.58453822	-218.08495676	-241.92847137	-51.398020463	-87.359454141	-260.21902682	-590.00912355	-1023.4702174	-1379.3985358	-1460.8213651	-1493.4127587	-1509.4904825	-1489.1911775	-1250.1955398	-846.92412729	-380.27141318	-23.260849356	87.975017858	97.896684963	-118.02908849	-521.08903992	-988.40688845	-1343.7602694	-1448.5838818	-1326.311988	-887.36478058	-614.19005658	-780.24658988	-1216.9641337	-1492.4190707	-1504.4441061	-1462.8861302	-1380.8517658	-1258.9194449	-1097.8305714	-898.73777581	-663.0080896	-393.72792117	-114.5704071	70.258300636	139.60140884	180.85898998	219.95024089	260.33839695	302.29532374	345.62857388	390.06461768	435.31114408	481.06370624	527.01675437	572.86069359	618.28883764	662.99582717	706.68127508	749.0530818	789.82545149	828.72550235	865.49317336	899.87776185	931.65349877	960.60604825	986.53722794	1009.2779825	1028.6708808	1044.5895464	1056.9273965	1065.5977751	1070.5456349	1070.7880041	703.42946291	269.0534248	377.437779	829.23478228	853.31064965	788.78765935	671.47204109	502.66046424	284.26430089	18.977840441	-283.67995095	-534.7107653	-625.6452942	-670.07781118	-711.8952202	-755.22549361	-800.05197778	-845.92435531	-892.33132161	-938.74629592	-984.64219669	-1029.4957603	-1072.7979204	-1114.0557224	-1152.7985552	-1188.5899719	-1221.0163154	-1249.7133066	-1274.3552225	-1294.6549727	-1310.3891606	-1321.3772976	-1327.4896864	-1321.029322	-950.73457121	-591.04869355	-813.75431472	-1142.3239548	-804.74463481	-593.61719119	-940.34408917	-1107.3148136	-1288.2880967	-1103.3730651	-731.02752995	-259.46656843	167.65101456	343.35853651	376.0776932	271.11347109	-61.799089778	-525.9918813	-976.48531487	-1213.9815245	-1253.5961178	-974.57720019	-511.61837128	-292.88134953	-508.15961771	-961.54349511	-1279.6296751	-1310.3928128	-1268.5535829	-1174.5671617	-1029.464056	-834.8464187	-592.7906513	-306.24343898	14.029228244	285.00642987	395.09803276	444.62604957	487.93226395	532.01217591	577.30303604	623.44430992	669.95632884	716.33715671	762.08249485	806.69438762	849.68565584	890.58970689	928.95824024	964.37528289	996.45548117	1024.8453409	1049.2389518	1069.3701623	1085.01695	1096.0125503	1102.234366	1102.3262518	722.48292594	297.77090699	427.7446124	872.63759727	892.84976865	849.54264069	771.4040586	658.81226777	512.40175455	332.8317974	121.12895734	-120.53961332	-374.9068989	-556.52027052	-627.67300787	-666.59222705	-702.38198447	-739.36306782	-778.01079542	-818.24252181	-859.87645033	-902.70513967	-946.51332064	-991.07860886	-1036.1746153	-1081.5736781	-1127.0444073	-1172.3572447	-1217.2808741	-1261.5875285	-1305.0544605	-1347.4583118	-1388.5872146	-1428.2275832	-1466.1822659	-1502.2587874	-1536.2715247	-1568.0507164	-1597.4325178	-1624.269385	-1648.4279176	-1669.7783034	-1688.2189032	-1703.6531739	-1716.0021136	-1725.2055595	-1731.2156027	-1734.0006539	
4	1	517.9532731987588	242559.6638292661	0.1561058352572911	0.5684339488686485	0.012045094325853968	0.010204481074802808	0.01381829513486138	0.8822777873589156	2.8266052492	-293.76112693	-572.27727925	-586.62104578	-201.62173791	341.47974796	503.93895774	504.75064326	213.01027858	-278.99542484	-580.46854379	-670.93670793	-725.67224521	-730.67039378	-339.89465402	-535.91640681	-732.37341877	-504.47509295	-78.987135407	318.03339227	435.5032324	518.0494011	576.05221492	600.48437422	208.89659892	358.40991438	526.78233768	568.95832851	425.43905051	169.74213814	-182.56781448	-464.00370038	-565.88430621	-654.22358658	-745.22131866	-836.0210732	-922.90267745	-1002.2551203	-1070.7825945	-1125.6016737	-1164.4529821	-1185.7089512	-1167.6583887	-701.73547932	-306.22840774	-546.88931376	-984.97426581	-633.00865308	-753.14020754	-940.63966773	-1181.1012905	-982.19121799	-554.38383852	-130.66737355	-10.92160594	55.836735841	85.074558975	-15.742430314	-393.45201017	-892.96773337	-1072.7118451	-1139.0657747	-1160.2649874	-843.67975989	-310.84359521	-167.6897012	-486.80293732	-1017.3916311	-1182.3737567	-1184.1025895	-1072.6990595	-868.49031474	-577.51675893	-240.7473858	-65.9562887	20.080808374	105.41973746	194.89277409	286.60133996	378.14496835	467.08605049	551.04975407	627.78934964	695.2636927	751.65992341	795.47734997	825.55240699	841.06099459	754.99148732	215.17063724	-100.59242737	238.38336236	714.41692999	727.26042224	656.98433852	530.11548997	348.00153077	113.4580727	-139.58980309	-278.77566551	-348.51615987	-415.35974827	-487.07954125	-563.77912181	-644.7902058	-729.33158251	-816.5723623	-905.65124801	-995.68829237	-1085.7980558	-1175.0931472	-1262.6860536	-1347.7159163	-1429.3466015	-1506.7708281	-1579.2256548	-1645.9894129	-1706.4118851	-1759.8981368	-1805.9094252	-1844.0034494	-1873.8001208	-1895.0017069	-1907.4071828	-1910.7400961	-1790.9420612	-1490.0309465	-1054.609752	-769.08593302	-669.63224989	-590.00060842	-528.38488334	-491.93586774	-489.70794906	-972.52121629	-1000.4644772	-777.00764823	-819.18659074	-1021.931937	-1403.5366735	-1655.0255998	-1746.4568497	-1826.1738412	-1886.3886266	-1917.8021062	-1893.9931773	-1613.6770506	-1143.7711629	-786.24895512	-688.29173993	-638.31381043	-630.71228421	-883.970226	-1355.1418384	-1746.2528693	-1845.9504006	-1883.3512663	-1739.9393207	-1225.7402419	-929.88981901	-1124.6564829	-1632.4235058	-1893.7405228	-1910.0963465	-1861.3532544	-1765.1356575	-1622.1222367	-1433.2131725	-1201.1086618	-952.23828083	-792.78754959	-716.54191502	-652.35949747	-585.20739214	-513.54174114	-437.55663775	-357.71568191	-274.54036878	-188.59016736	-100.44209533	-10.683601018	80.079494858	171.24053924	262.18521041	352.30505892	440.99429932	527.65702068	611.71375656	692.59754717	769.76705211	842.70636487	910.9181441	973.9545115	1031.3902698	1082.8322671	1127.9451331	1166.4165575	1197.9958364	1222.4715315	1239.6717361	1249.4872474	1249.9680569	819.10577081	326.65082513	453.77416191	983.14753773	1010.9914331	935.312818	797.7141458	599.76569168	348.61632161	136.58627529	50.601794426	-15.783304407	-86.796836565	-163.50905308	-245.21119994	-330.99616929	-419.89299985	-510.88812789	-602.9483423	-695.02548245	-786.07316005	-875.05313927	-960.9554864	-1042.8022668	-1119.6598817	-1190.6625106	-1254.9895437	-1311.9183279	-1360.8026972	-1401.0731247	-1432.2864385	-1454.0845874	-1466.210279	-1458.6329576	-1024.328812	-609.89828962	-871.10747675	-1253.0909858	-857.17178337	-612.20364423	-1018.8202521	-1212.78502	-1415.0984433	-1198.2127705	-762.34626903	-351.19411224	-236.07331175	-172.58515641	-147.04980996	-270.16169496	-660.58095407	-1161.8822011	-1350.4963202	-1414.5143612	-1431.4122166	-1104.1533412	-569.17432353	-374.07080966	-626.5692427	-1152.7689922	-1431.6287855	-1458.6146861	-1409.5417129	-1299.3056232	-1129.1158825	-900.9756714	-623.33080146	-379.87809753	-270.97407987	-198.40857685	-124.39590858	-45.502699241	37.893163344	124.94475635	214.7181179	306.23625152	398.5021021	490.51067897	581.25939947	669.75985545	755.04541919	836.1904154	912.30549134	982.565437	1046.205789	1102.5252879	1150.9170719	1190.8531516	1221.8930817	1243.7060359	1256.0488074	1256.2310894	810.72850541	329.16282403	481.60817687	1001.8276483	1024.7624665	973.96780471	882.31954802	750.26220414	578.63128061	371.69618002	177.25962896	80.613783038	23.586367534	-32.493857697	-92.746720428	-157.51807333	-226.57425917	-299.58695059	-376.18335241	-455.97758307	-538.56605884	-623.52786425	-710.43365859	-798.84166247	-888.30258756	-978.36474346	-1068.569082	-1158.4602014	-1247.5792159	-1335.4742827	-1421.7035177	-1505.8238248	-1587.4149027	-1666.0530424	-1741.3471365	-1812.9153545	-1880.3894595	-1943.4326804	-2001.7199843	-2054.9586747	-2102.8841135	-2145.2387809	-2181.8210457	-2212.4393871	-2236.9370819	-2255.1947795	-2267.1174391	-2272.6423939	
5	1	469.4619197355619	157103.6058197887	0.023654885173786645	0.018789800436355142	0.13335334308913355	0.020887675609483472	0.019658236168005352	1.1314364985147933	1.8307655522	-190.26860108	-478.84196691	-481.91619816	-232.55232154	141.40769847	395.30152931	397.32780978	208.37009365	-114.34998589	-458.4126441	-491.37055895	-496.75574357	-497.24548922	-244.13937329	-371.100904	-498.81675758	-351.20913782	-74.968418183	282.86090494	470.28918473	479.52340994	485.21616898	487.61323379	233.98119783	330.81956194	439.98919562	467.65254721	374.69646455	209.07716775	-22.278173439	-309.06990957	-484.33734068	-495.10949333	-504.04036339	-512.95088663	-521.47769824	-529.26571346	-535.99134425	-541.3715709	-545.18464	-547.2708115	-535.57963246	-233.77512209	32.801606508	-123.07219229	-407.69432672	-179.72128432	-257.52935876	-378.97513416	-546.63475361	-417.80257007	-140.31659875	219.89365782	435.94483236	445.6065723	448.50341699	383.20520418	138.5416318	-214.67809645	-525.28101006	-553.96388968	-556.26309181	-351.21335073	0.71538630244	122.18198338	-84.505562782	-443.48894129	-558.52606352	-558.75537513	-486.60035974	-354.33577662	-165.59857448	74.620195082	351.31018088	441.55050445	450.50149592	459.28098187	468.28080438	477.26517536	485.99426913	494.23489232	501.76651356	508.38879753	513.92381862	518.22429036	521.17601406	522.69810815	466.95170031	116.98337233	-106.2592379	113.29251707	430.47488898	440.48228508	394.96512868	312.79336019	194.83315465	42.225384169	-143.53230503	-358.02597415	-478.74928525	-488.59457708	-495.6571679	-503.1833313	-511.13375711	-519.43098609	-527.99322506	-536.73588543	-545.57259042	-554.41643436	-563.18032279	-571.77715013	-580.12242701	-588.13409083	-595.73291074	-602.84400767	-609.39655328	-615.32673181	-620.57615326	-625.09194257	-628.83069003	-631.75509174	-633.83592668	-635.05346519	-635.38057479	-557.78851781	-362.88515602	-74.914609074	266.02913975	392.91167356	401.4501554	407.49766942	411.07381278	411.29241984	98.55852582	80.445265589	225.18733064	197.86842752	66.551807562	-183.981302	-512.35767308	-634.55739516	-642.66893142	-648.57906886	-651.66200018	-636.24118154	-454.68282844	-148.32625727	206.65909457	387.601947	396.54537799	397.35611228	233.32329482	-72.870372269	-427.93280765	-634.53009182	-647.37558969	-554.48902537	-221.03253786	-13.456921903	-139.60546165	-471.47956057	-649.34309967	-651.37965079	-619.80920989	-557.48997995	-464.86137975	-342.48662572	-191.24047331	-12.120902101	192.95692839	368.24155781	394.97415662	401.91846183	408.95384486	416.41002191	424.24560695	432.40874319	440.84430689	449.49560728	458.30497169	467.21293611	476.1599585	485.0857454	493.93058009	502.6350075	511.14054175	519.39031092	527.32867061	534.90249082	542.06113777	548.75579977	554.9425197	560.57956646	565.62835404	570.05596748	573.83175498	576.93111114	579.33328432	581.02140266	581.98474845	582.03193762	302.9598477	-27.040130307	55.296455571	398.52521997	416.82428279	367.80795777	278.68653847	150.44506449	-15.465752265	-217.07785668	-429.2084059	-472.70596333	-479.97376102	-487.50332393	-495.52158927	-503.94088025	-512.66565803	-521.5963908	-530.63166129	-539.66859432	-548.60449095	-557.33745298	-565.76836011	-573.80123266	-581.34444234	-588.31301297	-594.6264056	-600.21369525	-605.01146382	-608.96381492	-612.02725335	-614.16663809	-615.35671709	-610.44895755	-329.14631063	-55.898155705	-225.08145778	-475.98910801	-219.53946602	-59.151298975	-322.55512655	-449.97446515	-597.7850969	-457.31027935	-174.44947933	183.99153749	434.77804008	449.60280366	452.22819436	372.48978792	119.58534589	-233.09896151	-557.38845806	-609.1818902	-611.56853183	-399.60560369	-47.900711975	118.411498	-45.129428071	-389.89763079	-609.33753872	-614.67916532	-582.89506352	-511.49618778	-401.26538538	-253.41973796	-69.532700282	148.30878839	379.86370491	446.27685129	454.47498081	462.2237006	470.40711624	478.95040254	487.761119	496.74315502	505.79859841	514.8287988	523.73535278	532.42125125	540.79162372	548.75561934	556.22595227	563.12163203	569.36763014	574.89512132	579.64454496	583.56408141	586.61050306	588.75134085	589.96272522	589.98061534	301.42418073	-21.231415315	77.506001493	415.48181928	430.8386436	397.9394204	338.57970818	253.04684944	141.82283805	5.4077437963	-155.4462626	-338.10588395	-461.5855719	-474.52658401	-480.55787044	-486.91547735	-493.69253948	-500.85824403	-508.37577466	-516.20718587	-524.31284774	-532.65144352	-541.1808336	-549.8576588	-558.63782338	-567.47699597	-576.33012314	-585.15250935	-593.89911714	-602.52560029	-610.98858996	-619.24459837	-627.25237497	-634.97033471	-642.36009227	-649.38417279	-656.00643558	-662.19382815	-667.91445005	-673.13957454	-677.84322863	-682.00013797	-685.59051344	-688.59555816	-690.99989049	-692.79179676	-693.96194913	-694.5041972	
6	1	558.3576452266625	158712.92997015407	0.12798420426550478	0.6176354970758771	0.1341275739236319	0.016130951788499628	0.036872517066096414	0.3018155315249435	1.8495193879	-192.21765799	-537.33038289	-566.1502429	-314.23195446	63.563506617	327.55982595	330.01514518	139.12180055	-186.90404142	-543.12515649	-617.50803578	-646.76295795	-649.43836422	-393.73953352	-522.00161955	-652.20469186	-503.08502226	-224.02024174	135.60465675	438.53020005	540.77210258	578.67986458	592.79555086	336.56542236	434.39577081	544.70105132	572.99670752	479.08840948	311.7726145	78.07841954	-209.56344587	-480.65420471	-599.74012255	-657.23974301	-707.07904592	-753.88828309	-796.50466819	-833.28055175	-862.69341837	-883.53730722	-894.94089621	-883.1299561	-578.2347498	-309.15452444	-466.6250496	-754.12916567	-523.82097427	-602.42609225	-725.11588076	-893.80055169	-763.64864863	-483.3297118	-121.95887556	177.00670015	289.55495162	317.66592471	251.6988158	4.5290448914	-352.08244351	-693.12675009	-841.25946192	-867.00376014	-659.85356924	-304.48913788	-182.59018162	-391.39497048	-751.851591	-895.91841701	-897.07925584	-824.18510523	-690.56566071	-499.9018941	-257.70798573	17.838134672	235.88978579	332.76808427	389.4081851	440.185158	489.65069201	537.46148712	582.53598888	623.71514792	659.91701352	690.17327898	713.6804198	729.81484411	738.13471341	681.81725541	328.27325641	103.19119908	324.99197906	645.35663723	655.47658521	609.49316415	526.47965226	407.31128358	253.15393986	65.894165224	-147.08576109	-345.69796701	-462.22629795	-521.3541491	-566.9381026	-611.43930761	-657.07135734	-703.95679056	-751.7721341	-800.08344253	-848.42738447	-896.33184177	-943.32214192	-988.93704135	-1032.7282326	-1074.2627547	-1113.1313764	-1148.946982	-1181.3607741	-1210.0536057	-1234.736471	-1255.1720991	-1271.1565919	-1282.530231	-1289.1851766	-1290.9731254	-1212.5862377	-1015.6865894	-724.90553913	-385.42215857	-123.92609712	-19.93290862	24.671721675	46.792017473	48.095564996	-267.84169613	-286.14036546	-139.93927166	-167.53802176	-300.19981035	-553.28860224	-883.83433527	-1155.2046589	-1244.9990687	-1282.6316001	-1300.3392916	-1284.7605066	-1101.3423351	-791.89775461	-437.59017348	-176.38726383	-78.359455299	-67.590972255	-233.30409471	-542.6324253	-900.43811453	-1163.6486854	-1243.4001988	-1149.5621313	-812.70526348	-603.4894076	-730.9301767	-1066.0241499	-1283.380462	-1295.3873209	-1263.4934815	-1200.5358713	-1106.9584188	-983.33080359	-830.55848342	-650.00611423	-446.53593585	-243.50329169	-95.889523496	-16.719541603	33.654329486	77.64038173	121.41621195	166.34093599	212.55701397	259.88564595	308.05387905	356.75147234	405.65853383	454.44773567	502.79362137	550.37164123	596.86231786	641.95489387	685.34527304	726.74307908	765.8715677	802.46394751	836.27995818	867.09150476	894.68768182	918.88858051	939.52666203	956.46743616	969.59747683	978.82456438	984.09011695	984.34804826	702.41750493	369.29737199	452.47739017	799.21244907	817.68987082	768.17143667	678.13708496	548.58250083	381.01051647	178.35343647	-44.209817401	-221.15319347	-308.8035022	-360.5349863	-406.59692469	-453.15550804	-500.9943435	-549.85618529	-599.25875027	-648.66019467	-697.50564743	-745.24039204	-791.32349637	-835.2306906	-876.46129374	-914.55090375	-949.05933645	-979.59894026	-1005.8230873	-1027.4262586	-1044.1707166	-1055.8643857	-1062.3692416	-1057.4112084	-773.22727783	-497.28851743	-668.20375468	-917.50508398	-658.42873835	-496.41830127	-762.45810787	-889.05963468	-1021.4341231	-879.52032271	-593.77458191	-234.2361556	66.241464942	190.16689001	220.07764306	139.52241932	-115.97177824	-471.63543762	-802.08985225	-961.93473948	-991.13320258	-776.99901824	-421.86069198	-255.28299256	-420.49913178	-767.25271672	-1005.284279	-1034.9846835	-1002.8749945	-930.74472925	-819.38478199	-670.02746931	-484.36007993	-266.13709974	-34.096028047	146.72287248	240.00686885	295.36840508	343.19107618	390.70464207	439.10727911	488.28393846	537.81035729	587.18078274	635.8684852	683.34726318	729.10014824	772.63122421	813.4636928	851.15500872	885.29514375	915.50794213	941.46787117	962.89170096	979.54315996	991.24477938	997.86609251	997.96387819	706.45189541	380.73427729	480.4831318	821.91822709	837.43043308	804.1941997	744.22642371	657.8174048	545.45501224	407.67050252	245.61232778	63.850733463	-115.30938234	-242.99135764	-311.62304587	-356.3919861	-396.15748251	-436.12411544	-477.47169788	-520.36785478	-564.70693381	-610.29884336	-656.92569327	-704.35512821	-752.34796884	-800.66267907	-849.05334389	-897.27582057	-945.08401563	-992.2355756	-1038.4934708	-1083.6200123	-1127.3897346	-1169.5753414	-1209.9670246	-1248.3599514	-1284.5565812	-1318.3762528	-1349.6446021	-1378.2046115	-1403.9143155	-1426.6355671	-1446.260201	-1462.6854755	-1475.8273159	-1485.6216967	-1492.0176327	-1494.9815064	
7	1	475.034884505077	152021.83974403256	0.028670657481809282	0.6120957227224214	0.042076512214768186	0.06531083254653984	0.08209932298479351	0.5382748866862376	1.7715465277	-184.11401293	-487.71699101	-502.04500951	-260.74720503	101.01964539	346.09343372	348.18809529	165.34251711	-146.93874584	-483.69478809	-520.48853209	-526.80315923	-527.37753778	-282.45875356	-405.31340135	-532.45557222	-389.62255724	-122.34037305	218.46477391	464.41242964	519.84820643	532.38243166	536.14247187	290.71478128	384.42075426	489.99294448	516.74446661	426.79519635	266.5334154	42.759699915	-229.27941224	-455.4490167	-525.61872621	-544.0526623	-555.71350661	-565.96008451	-575.15872391	-583.06766275	-589.38570722	-593.86112067	-596.30916694	-584.99615769	-292.95536081	-35.316523562	-186.14833554	-461.04199592	-240.44332919	-315.73457766	-433.24894964	-596.88500793	-472.22010686	-203.72340089	141.46177981	413.48897216	497.42334898	512.95865363	449.7726154	213.02351493	-128.20091166	-446.50253927	-577.86967285	-598.81663053	-400.39957958	-60.064499251	56.499956476	-143.50181143	-485.71287492	-616.74870312	-617.74471715	-547.92367053	-419.93742224	-237.31387783	-5.4426151702	256.41799656	452.53788184	517.95029321	537.97291638	550.36067945	561.3219053	571.67875038	581.38310689	590.23151528	598.0048265	604.4995396	609.5448106	613.00746428	614.79295861	560.84975703	222.21108084	6.6255097646	219.07550805	524.28264269	533.59534858	489.55051702	410.03672573	295.89232609	148.23467396	-31.122645871	-235.12067784	-424.89081656	-527.59953432	-561.72771717	-576.29598101	-586.99286825	-597.09688312	-607.25337629	-617.54620703	-627.92492952	-638.30332741	-648.58458154	-658.66849478	-668.45675409	-677.85344365	-686.76578726	-695.10603459	-702.79115085	-709.74630902	-715.90303723	-721.19932737	-725.58427026	-729.01411653	-731.45459588	-732.88256937	-733.26621539	-658.18399694	-469.58526182	-191.02444081	136.46954779	403.42810934	504.022333	530.44967386	539.06192337	539.50580715	236.88803853	219.36084858	359.39684116	332.96161142	205.89263816	-36.526858586	-354.18864203	-642.9782289	-749.88539908	-773.04967108	-779.63011464	-764.70810691	-589.02255478	-292.60315626	48.880569294	318.53015731	431.77296211	444.1588255	285.43191062	-10.851857611	-353.16520262	-609.39464515	-695.86137229	-605.97937169	-283.31969955	-82.793893237	-204.86195769	-525.73991612	-746.9370489	-761.651869	-731.10262424	-670.79920895	-581.16683315	-462.7509015	-316.4106602	-143.32160803	53.156314226	257.25288554	419.76581929	501.12197384	532.51786141	547.79092108	558.91625903	569.11682758	579.23191641	589.46342872	599.83040615	610.2934122	620.79400305	631.26603083	641.64139962	651.85124917	661.82739511	671.50333779	680.81391887	689.69688065	698.09286839	705.94465128	713.20068498	719.81203191	725.73344082	730.92631026	735.35469229	738.98972983	741.80708529	743.7869712	744.91681771	744.97216286	474.9272342	155.72520033	235.39847834	567.34100171	584.91808274	537.48726874	451.24862427	327.15555817	166.62764871	-28.047931327	-248.71911656	-452.24666657	-561.59434803	-598.18285742	-613.86449262	-625.27334347	-635.93279569	-646.54133877	-657.18536566	-667.8024301	-678.29044258	-688.53625584	-698.42601523	-707.84812496	-716.6955419	-724.8687972	-732.27352625	-738.82659392	-744.45364685	-749.08914196	-752.68207462	-755.19123481	-756.58700864	-751.83799839	-479.63466508	-215.27300849	-378.98219696	-616.90207124	-368.74781717	-213.55589716	-468.35943225	-589.16201499	-711.1924445	-575.26150873	-301.55571658	44.244734737	356.05979338	512.64443587	550.77338602	473.61424519	228.89104916	-111.99519066	-436.70274646	-612.89048059	-647.46181585	-442.35518368	-102.12416993	57.985606464	-100.26528018	-432.77000865	-673.5917759	-705.9265454	-675.17055093	-606.08118545	-499.41598722	-356.35401859	-178.46556386	31.447752554	262.4452615	467.14279184	577.25750443	616.84005221	634.15639471	646.24902079	657.20470792	667.94767288	678.64542162	689.2675963	699.72719413	709.92074864	719.74103308	729.08319148	737.84561007	745.93365877	753.25951966	759.74256469	765.31298933	769.91004587	773.48305161	775.99393517	777.41470676	777.43568917	498.21321586	186.09942912	281.64302709	608.66356863	623.50485292	591.66980744	534.23017957	451.46402238	343.83809374	211.84626275	56.363214831	-120.33085761	-307.42127371	-467.47332096	-557.35233485	-593.63203584	-610.05408197	-620.99938361	-630.63766835	-640.11083	-649.72659419	-659.55069901	-669.57340723	-679.75863798	-690.06052709	-700.42953459	-710.81390249	-721.16171064	-731.42037889	-741.53801753	-751.4638251	-761.14683151	-770.5386755	-779.59059544	-788.257578	-796.4956752	-804.26250231	-811.51929573	-818.22864247	-824.35685142	-829.87346099	-834.74882885	-838.95974582	-842.48416641	-845.3040506	-847.40566026	-848.77805542	-849.41402269	
8	1	656.7092003128319	233261.9845547938	0.1889337834099168	0.6169339968747569	0.02578525953097066	0.025329160253978213	0.009710127579306128	0.39574497489643046	2.7182571891	-282.50411524	-695.13333189	-714.19462785	-343.94838191	207.62567036	525.39131327	527.5544713	246.99662546	-231.52668502	-677.10779801	-811.78210948	-876.81216202	-882.67054434	-506.86913485	-695.37709556	-888.39312021	-669.23046149	-259.2479851	240.29102108	508.82818935	619.2215128	688.40047223	717.11205858	340.52980142	484.31204544	646.38288656	687.66053074	549.64256383	303.73931153	-39.068692274	-431.855776	-673.93997121	-795.38185159	-903.4382366	-1009.4583411	-1110.6521086	-1203.0302235	-1282.795993	-1346.6025195	-1391.8226721	-1416.5629437	-1399.2042866	-951.1077345	-557.87109752	-789.30710704	-1211.2754575	-872.79168677	-988.31841681	-1168.6337287	-1413.5784299	-1222.292878	-810.41443816	-302.31637451	-24.000354513	72.584642491	108.93137054	11.978849133	-351.28114294	-869.0660568	-1245.0831374	-1361.6125044	-1390.2396228	-1085.7891597	-564.93321354	-391.89128354	-698.77261246	-1217.245198	-1415.9136882	-1418.168686	-1311.035422	-1114.6538518	-834.51101798	-483.18084562	-149.0821323	23.371935442	133.32427698	239.02114628	346.05409412	452.67122629	556.20976073	653.94191244	743.26178955	821.79635457	887.4365016	938.43590296	973.44041735	991.49093068	908.72059798	389.19777431	61.968066501	387.9508968	858.5983073	873.36301141	805.78071641	683.7749331	508.63416069	282.20916687	10.702023116	-260.90518938	-430.82035337	-529.0901643	-616.27181533	-706.29974153	-800.77002116	-899.2179552	-1000.7732532	-1104.4576894	-1209.2539484	-1314.1336214	-1418.0646161	-1520.0142333	-1618.9806309	-1713.9906799	-1804.1048073	-1888.4350357	-1966.1414198	-2036.4671741	-2098.7198554	-2152.2724214	-2196.6100784	-2231.2904414	-2255.9669797	-2270.4057201	-2274.2848998	-2159.0789051	-1869.6960429	-1443.6232211	-1001.7720379	-790.40263549	-685.61181619	-612.07655887	-569.26107641	-566.65147524	-1030.9808545	-1057.8702717	-843.00131925	-883.563479	-1078.5377466	-1450.1275868	-1887.0547545	-2087.5348832	-2187.4884291	-2258.3653196	-2295.0678214	-2272.1715248	-2002.6001266	-1548.2368683	-1062.6883041	-826.16018688	-748.53455139	-738.26160226	-981.81182124	-1436.2040065	-1932.879402	-2177.0635097	-2240.8991872	-2102.9844386	-1608.0119414	-1303.7243694	-1491.0253303	-1980.4334311	-2262.1935022	-2282.6007537	-2235.7260581	-2143.1966274	-2005.6649956	-1823.9751693	-1599.6582337	-1337.7977953	-1069.6568954	-876.9814145	-766.4346358	-680.01819388	-594.66896424	-505.72084822	-412.6437218	-315.78674086	-215.73159903	-113.12913853	-8.6563043196	96.984194057	203.08718889	308.93804271	413.82874081	517.0542817	617.92111877	715.75482779	809.89553282	899.71317221	984.60728472	1063.999016	1137.3670811	1204.2165934	1264.0899632	1316.5968533	1361.3737656	1398.1289058	1426.6161809	1446.6355085	1458.0597875	1458.6194019	1044.26564	556.69961847	678.95012522	1188.5430972	1215.6899394	1142.9122002	1010.5878334	820.1868621	574.34277718	287.39840062	47.076120145	-78.367210503	-168.96475519	-259.6032857	-354.97303058	-454.88537526	-558.37135495	-664.2866734	-771.4377581	-878.60723424	-984.57803464	-1088.1420455	-1188.1239146	-1283.3854686	-1372.8401112	-1455.4801226	-1530.350399	-1596.6098465	-1653.5063935	-1700.3771677	-1736.7063617	-1762.0772398	-1776.1903391	-1768.9034679	-1351.2384068	-946.64689716	-1197.8418326	-1563.6782886	-1182.9151034	-945.0664754	-1336.0405474	-1521.7627581	-1718.0784181	-1509.5062918	-1089.6725308	-584.00174827	-303.01936173	-207.05619381	-174.5536687	-292.9464887	-668.43808129	-1185.7016209	-1572.3941138	-1698.699531	-1723.8087976	-1409.093862	-888.19110804	-651.57423874	-894.3938928	-1401.6917931	-1716.9926983	-1755.0917951	-1707.8998632	-1601.8892897	-1438.2227233	-1218.7358902	-946.7231285	-640.05074224	-385.0579675	-244.97825508	-147.38603938	-53.274619455	44.316445995	145.77632988	250.30630439	356.83885382	464.23259609	571.32367265	676.94715274	779.95335435	879.21750737	973.66234028	1062.2527902	1144.0284212	1218.099487	1283.6497985	1339.9730325	1386.4546641	1422.5820599	1447.9701717	1462.3359315	1462.5480896	1034.1131275	557.44906041	704.05095204	1205.7523341	1228.4722098	1179.6245844	1091.4893433	964.49332672	799.36552444	597.20580143	364.190511	137.33579597	-11.982213593	-100.69047726	-175.96164146	-252.54784801	-333.23689831	-418.30887928	-507.48953445	-600.37275663	-696.50162407	-795.39039891	-896.54083586	-999.43929932	-1103.5630834	-1208.3865592	-1313.3754819	-1417.9998286	-1521.7255114	-1624.0266352	-1724.3888931	-1822.2965668	-1917.2604682	-2008.7874425	-2096.4222799	-2179.7205678	-2258.2537153	-2331.6297542	-2399.4703787	-2461.4349192	-2517.2153632	-2566.5119833	-2609.0901011	-2644.7268052	-2673.2396852	-2694.4898294	-2708.3666192	-2714.797117	
9	1	685.4651042004117	227815.67509498505	0.10436966435001434	0.9437480785146242	0.06308567018483678	0.04663107728563063	0.0837944907498804	0.549808868587524	2.6547900542	-275.90794028	-709.35945986	-728.71546034	-367.11623259	171.07874297	499.85957551	502.39471921	228.38746793	-239.03644146	-680.65148064	-785.7968955	-822.57589329	-825.79156991	-468.74148726	-652.84817158	-837.90164426	-625.97642612	-266.41891262	86.248598992	336.72702787	491.39087166	577.37145705	609.51576985	261.86232052	402.24368268	557.7185818	597.50031923	464.12416353	243.73268319	-9.9651027729	-241.51469292	-427.74517996	-572.84441989	-688.30812007	-783.19245032	-862.67949267	-929.1426093	-983.31062361	-1025.0503017	-1053.9490286	-1069.5542156	-1052.6284539	-666.25196167	-410.86899954	-636.89260955	-1024.5483443	-719.63682481	-832.46463647	-1006.2456496	-1154.6180729	-974.35077385	-648.06071813	-337.47980536	-114.45244735	18.201606596	70.021567324	-24.201878788	-344.45340655	-666.89384414	-865.52013812	-965.24876699	-993.38520748	-717.0402122	-359.56963126	-264.51450958	-561.84017439	-961.93946912	-1093.3675066	-1095.2850483	-992.49551712	-818.51184992	-606.16556321	-389.43816768	-190.17778182	-16.160913066	133.43956622	262.47245693	374.89597826	473.70455895	560.80905217	637.23346466	703.37035815	759.22230737	804.55271387	839.04789338	862.39884384	874.34439654	794.81597268	383.57325786	191.72197938	510.07873793	933.65144727	943.19623075	877.94312183	765.66848242	618.84845677	453.34759086	283.98756388	121.28481014	-29.324946411	-166.27393735	-290.29291207	-403.12082659	-506.66468109	-602.65159548	-692.46133378	-777.11199489	-857.29960845	-933.45683045	-1005.8038904	-1074.3932341	-1139.1656225	-1199.97544	-1256.6153788	-1308.8443193	-1356.397572	-1399.0178764	-1436.4508999	-1468.4515846	-1494.8162532	-1515.3617767	-1529.9418699	-1538.4584986	-1540.7448315	-1431.238223	-1188.9444477	-908.08308207	-657.60633853	-460.12871351	-315.42692171	-218.65773424	-166.38149137	-163.289891	-580.03091294	-600.89439856	-412.47363135	-451.9976592	-633.52427427	-915.04088346	-1163.6358104	-1336.917309	-1450.6732915	-1520.6623925	-1553.5693883	-1531.2933811	-1289.7894194	-969.09814613	-696.79046189	-511.86924447	-413.60709471	-399.47844732	-633.2876648	-1001.0472665	-1280.9276437	-1430.0083508	-1487.2247816	-1357.0555826	-977.19106517	-798.13594606	-980.87375013	-1407.216541	-1597.611802	-1615.2865786	-1569.9021117	-1483.4261611	-1363.4666016	-1220.5189771	-1065.8389912	-908.96906285	-756.64915539	-612.69453431	-478.60418106	-354.40394267	-239.26845785	-132.05130288	-31.569330791	63.25831477	153.32613555	239.34090218	321.83255332	401.16418189	477.56928322	551.16603101	621.98699398	689.99202895	755.08704665	817.13949427	875.98401586	931.43901776	983.31191357	1031.3987524	1075.5095664	1115.4522094	1151.0413417	1182.1179703	1208.5268325	1230.1440722	1246.8627012	1258.5934904	1265.2812441	1265.6087203	906.25388619	590.38548442	709.78162878	1202.4033725	1226.520951	1156.5795359	1036.7692695	881.74147349	708.69468429	532.56814476	363.29734426	205.91298343	61.823050955	-69.603063773	-189.84696847	-300.57385898	-403.27450423	-499.13117179	-589.00919321	-673.47938194	-752.87135634	-827.31920143	-896.81495731	-961.24183157	-1020.4088637	-1074.0881879	-1122.0129219	-1163.9284917	-1199.585018	-1228.7444698	-1251.2216561	-1266.8578744	-1275.534932	-1268.4245611	-905.79728407	-635.635848	-854.67992985	-1072.1034259	-741.35023652	-576.5066883	-896.80417267	-1004.9658541	-1114.8154858	-922.62547405	-611.84122625	-328.49670638	-126.25785734	-6.3740686383	37.432010004	-75.562248542	-380.43838574	-681.13058946	-887.05573938	-998.54482196	-1026.2696572	-747.67261806	-408.28984974	-286.63061866	-507.91646391	-843.65986713	-1032.5097766	-1068.6703167	-1023.0548753	-925.23381057	-788.05978836	-628.81124382	-463.64474633	-303.92205905	-155.48389329	-19.97345693	103.25381554	215.85565768	319.65714408	416.25468225	506.90723944	592.51094561	673.64681614	750.63765406	823.60385007	892.51395594	957.22408684	1017.5187651	1073.1276265	1123.7614549	1169.1211962	1208.9088076	1242.856027	1270.7182908	1292.2846568	1307.3958353	1315.9308026	1316.0567667	944.52835846	633.3350618	776.51329469	1242.5861909	1259.1633834	1211.9216853	1129.7346438	1018.9171714	888.00524599	745.87299017	600.42873654	457.48132803	320.65478642	191.74844526	71.187775225	-41.393109492	-146.78727781	-245.94618519	-339.79633899	-429.18191846	-514.81575795	-597.26977866	-676.98842351	-754.29591539	-829.41486471	-902.48425739	-973.5680834	-1042.6753949	-1109.7641549	-1174.7573215	-1237.5513491	-1298.0134909	-1356.0036377	-1411.3591392	-1463.9233137	-1513.5312658	-1560.0150352	-1603.2175137	-1642.9801503	-1679.1581534	-1711.618368	-1740.2258524	-1764.8774429	-1785.4712545	-1801.9237398	-1814.1716737	-1822.1636004	-1825.8654095	
10	1	453.37660753031105	237001.21482468193	0.08293238799810472	0.6818202991034834	0.07274215418852452	0.024442559200160276	0.009609840789396307	0.39433172393826654	2.7618313256	-287.0269516	-493.8068221	-501.24230299	-125.12593967	354.0541232	449.2743901	449.72956166	164.68070683	-299.20352397	-498.61530237	-547.80648477	-576.48208346	-579.0883344	-197.39479226	-388.92465056	-582.31702526	-359.6432595	50.332017742	346.4962929	415.86564474	459.76305297	490.04174433	502.75722107	120.27380777	266.36090623	431.02786056	472.73045965	332.50012312	82.849691377	-243.96797764	-439.63497407	-500.67519287	-547.89183407	-595.35893103	-642.5416165	-687.65398304	-728.84897743	-764.42216337	-792.87857443	-813.04597956	-824.07974019	-806.44282079	-351.8747473	-3.7229879757	-238.86895524	-665.68183721	-321.97948622	-439.35812984	-622.54675186	-835.04831443	-640.69730922	-226.65113834	108.25163972	185.36942732	221.94639774	237.41832051	138.91163624	-229.7060501	-660.5704738	-776.32193198	-813.59194272	-824.93506202	-515.63067641	-22.961293511	79.883015354	-231.90545757	-721.06218813	-832.6251636	-833.67938422	-724.82876711	-525.32684562	-244.16948511	35.595823337	151.7990573	202.64539418	248.09747945	294.7808738	342.44520923	389.98186242	436.15590247	479.74251283	519.57783711	554.60316354	583.87777453	606.62281357	622.23434979	630.28463225	546.18747829	22.271713715	-242.65360062	88.553490652	540.69724176	551.05348731	482.38783694	358.42754716	180.6410185	-43.943441625	-257.63583844	-362.2735051	-408.21068431	-445.11746434	-482.86751425	-522.82056149	-564.91443489	-608.81285453	-654.10349153	-700.34506531	-747.08276773	-793.85770153	-840.20952224	-885.67765781	-929.81530548	-972.18846814	-1012.3781127	-1049.9882157	-1084.644175	-1116.0084755	-1143.772298	-1167.6559907	-1187.4299631	-1202.8969179	-1213.9023073	-1220.3417826	-1222.0718423	-1105.0190937	-811.19583587	-411.89050429	-212.23854388	-151.93378333	-109.26114559	-77.00642626	-58.016357283	-56.856735086	-528.23894894	-555.35314133	-337.1558051	-378.36818332	-576.44899382	-932.77905888	-1105.0359109	-1156.2550214	-1197.9894105	-1229.3004984	-1245.618296	-1222.3549678	-948.47747121	-501.0440536	-227.59135889	-163.1923887	-135.21590083	-131.10318802	-378.55526148	-832.70399887	-1140.4210239	-1205.087406	-1226.2128791	-1086.087392	-587.64036265	-336.03313327	-526.3364188	-1015.9209542	-1225.0466368	-1235.9363209	-1188.3102158	-1094.2975902	-954.57215535	-770.41129324	-550.20811876	-344.23545537	-231.0519838	-179.63316731	-142.69323668	-106.80345406	-69.289527647	-29.742795099	11.739090136	54.928864292	99.550461025	145.30948738	191.90297758	239.0172667	286.3378016	333.54585856	380.32567868	426.36284753	471.3480579	514.98052938	556.96596874	597.02337878	634.88496316	670.2925616	703.01368875	732.82763239	759.53031418	782.94764932	802.91752291	819.30979876	832.01472301	840.94306165	846.03812947	846.28770964	425.47558801	-24.399209755	99.810993923	616.3784715	643.12943855	569.1850614	434.74349592	241.79285162	7.7003083457	-163.82311877	-228.70969741	-267.44861474	-305.15696004	-345.17018102	-387.63187958	-432.17716239	-478.32743885	-525.56355428	-573.35133312	-621.14742447	-668.40893806	-714.59705262	-759.18757568	-801.67289935	-841.56841861	-878.42470581	-911.81579897	-941.36658252	-966.74164347	-987.64535033	-1003.8476604	-1015.1627155	-1021.4569594	-1014.0532785	-589.90472575	-204.51476409	-459.72033606	-822.67852329	-436.17295773	-206.22547977	-603.06423482	-786.28543456	-958.05575271	-746.14188932	-325.29545428	-1.802396103	73.379162766	108.40938104	121.98148311	1.6908199385	-379.21254076	-819.41540709	-953.92682655	-992.39939051	-1001.7668631	-682.0302872	-180.16234296	-30.961067385	-277.66837219	-775.73733342	-988.02858833	-1007.2357369	-959.28731012	-851.57749283	-685.31407426	-463.58153783	-209.78733095	-25.84566212	50.396167054	93.884942152	133.74886153	175.08450968	218.48802037	263.71304334	310.32690109	357.83808467	405.73421396	453.49548568	500.60220736	546.54161962	590.81209916	632.9332081	672.44333045	708.91413024	741.94879635	771.18332191	796.30269799	817.03285597	833.14516909	844.46791159	850.87483929	850.96945885	415.8938367	-23.229671701	125.72227378	633.40614607	655.4682714	605.83761009	516.2897284	387.28105584	220.31803772	27.371505797	-131.675394	-207.21430979	-245.1043796	-276.38448907	-308.24775229	-342.04422999	-377.9475743	-415.8679033	-455.63586897	-497.05909113	-539.9308909	-584.03385204	-629.14554784	-675.03684617	-721.47461429	-768.22442783	-815.04802266	-861.70901763	-907.96921843	-953.59408407	-998.35424157	-1042.0196882	-1084.3722533	-1125.1919969	-1164.2759018	-1201.4257666	-1236.4504456	-1269.1751268	-1299.4310908	-1327.0664041	-1351.9436973	-1373.9292962	-1392.9185377	-1408.8120062	-1421.5283496	-1431.0056148	-1437.1944678	-1440.0623794	
