eval_id	interface	fy	E	b	cR1	cR2	a1	a3	stress.CovMultiplier	stress_1	stress_2	stress_3	stress_4	stress_5	stress_6	stress_7	stress_8	stress_9	stress_10	stress_11	stress_12	stress_13	stress_14	stress_15	stress_16	stress_17	stress_18	stress_19	stress_20	stress_21	stress_22	stress_23	stress_24	stress_25	stress_26	stress_27	stress_28	stress_29	stress_30	stress_31	stress_32	stress_33	stress_34	stress_35	stress_36	stress_37	stress_38	stress_39	stress_40	stress_41	stress_42	stress_43	stress_44	stress_45	stress_46	stress_47	stress_48	stress_49	stress_50	stress_51	stress_52	stress_53	stress_54	stress_55	stress_56	stress_57	stress_58	stress_59	stress_60	stress_61	stress_62	stress_63	stress_64	stress_65	stress_66	stress_67	stress_68	stress_69	stress_70	stress_71	stress_72	stress_73	stress_74	stress_75	stress_76	stress_77	stress_78	stress_79	stress_80	stress_81	stress_82	stress_83	stress_84	stress_85	stress_86	stress_87	stress_88	stress_89	stress_90	stress_91	stress_92	stress_93	stress_94	stress_95	stress_96	stress_97	stress_98	stress_99	stress_100	stress_101	stress_102	stress_103	stress_104	stress_105	stress_106	stress_107	stress_108	stress_109	stress_110	stress_111	stress_112	stress_113	stress_114	stress_115	stress_116	stress_117	stress_118	stress_119	stress_120	stress_121	stress_122	stress_123	stress_124	stress_125	stress_126	stress_127	stress_128	stress_129	stress_130	stress_131	stress_132	stress_133	stress_134	stress_135	stress_136	stress_137	stress_138	stress_139	stress_140	stress_141	stress_142	stress_143	stress_144	stress_145	stress_146	stress_147	stress_148	stress_149	stress_150	stress_151	stress_152	stress_153	stress_154	stress_155	stress_156	stress_157	stress_158	stress_159	stress_160	stress_161	stress_162	stress_163	stress_164	stress_165	stress_166	stress_167	stress_168	stress_169	stress_170	stress_171	stress_172	stress_173	stress_174	stress_175	stress_176	stress_177	stress_178	stress_179	stress_180	stress_181	stress_182	stress_183	stress_184	stress_185	stress_186	stress_187	stress_188	stress_189	stress_190	stress_191	stress_192	stress_193	stress_194	stress_195	stress_196	stress_197	stress_198	stress_199	stress_200	stress_201	stress_202	stress_203	stress_204	stress_205	stress_206	stress_207	stress_208	stress_209	stress_210	stress_211	stress_212	stress_213	stress_214	stress_215	stress_216	stress_217	stress_218	stress_219	stress_220	stress_221	stress_222	stress_223	stress_224	stress_225	stress_226	stress_227	stress_228	stress_229	stress_230	stress_231	stress_232	stress_233	stress_234	stress_235	stress_236	stress_237	stress_238	stress_239	stress_240	stress_241	stress_242	stress_243	stress_244	stress_245	stress_246	stress_247	stress_248	stress_249	stress_250	stress_251	stress_252	stress_253	stress_254	stress_255	stress_256	stress_257	stress_258	stress_259	stress_260	stress_261	stress_262	stress_263	stress_264	stress_265	stress_266	stress_267	stress_268	stress_269	stress_270	stress_271	stress_272	stress_273	stress_274	stress_275	stress_276	stress_277	stress_278	stress_279	stress_280	stress_281	stress_282	stress_283	stress_284	stress_285	stress_286	stress_287	stress_288	stress_289	stress_290	stress_291	stress_292	stress_293	stress_294	stress_295	stress_296	stress_297	stress_298	stress_299	stress_300	stress_301	stress_302	stress_303	stress_304	stress_305	stress_306	stress_307	stress_308	stress_309	stress_310	stress_311	stress_312	stress_313	stress_314	stress_315	stress_316	stress_317	stress_318	stress_319	stress_320	stress_321	stress_322	stress_323	stress_324	stress_325	stress_326	stress_327	stress_328	stress_329	stress_330	stress_331	stress_332	stress_333	stress_334	stress_335	stress_336	stress_337	stress_338	stress_339	stress_340	stress_341	stress_342	
1	1	482.95828064774526	174784.52701964168	0.027772605342204933	0.0036669088042390816	0.16221246510043966	0.0028539907430167027	0.01957026838510907	1.4197872181478266	2.0368055173	-211.68201184	-487.35392329	-489.44583936	-212.01778797	204.00037741	459.55587521	460.80855257	250.58495606	-108.45456913	-473.45049431	-500.35099361	-507.34914606	-507.98853492	-226.39708114	-367.64724989	-506.47741212	-342.25757853	-34.92789011	360.13480902	483.10976945	493.77038186	501.1973399	504.32806153	222.15149906	329.8883494	451.34790558	482.17145934	378.7538143	194.49521434	-62.897304351	-378.01447061	-487.04691843	-498.55668075	-510.21200403	-521.85089325	-532.98868677	-543.16146074	-551.94653892	-558.97423837	-563.95490283	-566.67987842	-553.67293827	-217.90242352	78.671428708	-94.744885034	-411.37268457	-157.74285742	-244.30769098	-379.42132663	-559.70446204	-416.37310979	-107.65801986	291.371223	438.1476081	446.99158775	450.72927809	378.08220433	105.88344382	-287.01801991	-549.94877705	-561.60215196	-564.31831985	-336.1916526	55.342405778	190.36718501	-39.581610937	-439.00651835	-567.41390063	-567.68637134	-487.41080941	-340.26076482	-130.28250087	136.94376686	408.62094883	442.39485582	453.33362569	464.79580202	476.5513574	488.28681913	499.68883819	510.4528128	520.29068284	528.94076851	536.17066183	541.78797591	545.64354342	547.63171612	485.61143673	96.256603086	-152.08716537	92.173616869	445.05845507	456.19418519	405.55438853	314.13475742	182.89894889	13.116243477	-193.51296498	-413.23204998	-460.46711261	-469.2183828	-478.39830709	-488.22820988	-498.61310171	-509.45101428	-520.6350862	-532.05482622	-543.59740813	-555.14931501	-566.59678331	-577.82603492	-588.72670913	-599.191615	-609.11726052	-618.405838	-626.9648308	-634.71088225	-641.56772281	-647.4662866	-652.34987148	-656.16975076	-658.88775569	-660.47811522	-660.90538866	-574.58088383	-357.74250047	-37.364161515	320.33264657	374.42812712	384.63537801	392.52470914	397.19545003	397.48098594	49.551061201	29.399279175	190.43105992	160.03760373	13.942208978	-264.78649896	-603.89149075	-641.0279287	-651.24145571	-658.95921187	-662.98609209	-645.82976727	-443.83828077	-103.00353727	283.12060898	371.84366957	378.46674878	379.43755862	196.94398526	-143.70962302	-534.64861152	-653.08200339	-658.59135744	-555.25105454	-184.26635629	46.653475248	-93.692207706	-462.91860329	-660.37655556	-662.7629606	-627.63948554	-558.3066585	-455.2533518	-319.10616797	-150.83833088	48.419459642	270.12093463	366.52685512	376.66173915	385.24877698	394.42664819	404.16555315	414.40044291	425.06320208	436.0818096	447.3822144	458.88908381	470.52474543	482.21142492	493.87036641	505.42356742	516.7933672	527.90337098	538.67929217	549.04844755	558.94143824	568.29212596	577.03675246	585.11790054	592.48106069	599.07583152	604.8592192	609.7911861	613.83959243	616.9773322	619.18236726	620.44069802	620.50233693	310.02261887	-57.109285636	34.493711914	416.35068471	436.70940125	382.17662882	283.0252119	140.35104949	-44.231586216	-267.65732146	-408.86303859	-419.77401266	-428.86292635	-438.69370135	-449.16714583	-460.16449533	-471.56087683	-483.22627866	-495.02822859	-506.83235015	-518.50449706	-529.91156902	-540.9240942	-551.41670311	-561.26971006	-570.37211842	-578.6187275	-585.91689448	-592.18378205	-597.34637788	-601.34786816	-604.14235135	-605.69684303	-600.23674919	-287.27544042	16.723869183	-171.49984012	-450.65360161	-165.34233108	13.096355056	-279.95174771	-421.71368139	-586.54894628	-430.26466231	-115.56984551	281.55893306	437.2932757	445.96687267	449.23345681	360.52104576	79.153962895	-313.15015461	-585.67085744	-599.09711535	-601.2789706	-365.46108502	25.824547986	210.58425982	28.637936803	-354.93385754	-599.03159321	-605.07385206	-569.71267005	-490.27834605	-367.64183138	-203.15718187	1.4244573791	243.08945618	425.33024444	442.65826514	452.13711805	462.23918871	472.92794423	484.08724116	495.59587562	507.32829013	519.15659008	530.95191739	542.58573668	553.9313338	564.86478808	575.26742933	585.02524402	594.03244168	602.19101945	609.41107714	615.61481615	620.7345492	624.713812	627.51019319	629.09251413	629.11588235	308.08442239	-50.877243525	58.972384724	434.98531919	452.07071778	415.4689152	349.42867908	254.26969032	130.52818791	-21.239334532	-200.07717009	-378.38250879	-414.45787893	-421.9139906	-429.6256938	-437.92591897	-446.7780298	-456.13792911	-465.9573934	-476.18685171	-486.77453866	-497.66648594	-508.80765042	-520.14139596	-531.61012429	-543.15592941	-554.71996213	-566.24384073	-577.6687369	-588.93672521	-599.99115688	-610.77522783	-621.23505618	-631.3163232	-640.96888963	-650.1438055	-658.79386351	-666.8758902	-674.34821694	-681.1733206	-687.31727501	-692.74706662	-697.43684669	-701.36206258	-704.50262266	-706.84322642	-708.37168976	-709.07997896	
2	1	479.1159965455596	172998.46025799614	0.02803635226977654	0.004159278780716041	0.15272149288124515	0.005143933149210327	0.022326619581468633	1.4443816755557504	2.015992058	-209.51890164	-484.50771819	-486.62072476	-212.02762123	199.74260176	455.05013498	456.35630348	248.28091416	-107.08975545	-470.12997307	-497.67624995	-504.67013594	-505.30901422	-226.59505277	-366.40183181	-504.24865279	-341.70692876	-37.51774224	353.9191575	481.21808115	491.89524561	499.31627162	502.44443463	223.15134353	329.78726572	450.0078607	480.54536602	378.18451256	195.80879186	-58.953554022	-371.40901169	-485.04544836	-496.59231594	-508.23826357	-519.86762161	-530.99629262	-541.16073444	-549.93861709	-556.96056041	-561.93714538	-564.65988905	-551.78586263	-219.44647857	74.097567731	-97.54666058	-410.94301469	-159.90494901	-245.58520442	-379.31816061	-558.63736969	-416.77067435	-111.21024386	284.07865834	438.03614652	446.96693752	450.70262584	378.79790911	109.38066002	-279.52043684	-548.61441328	-561.01467545	-563.73520499	-337.93969065	49.593783016	183.26188184	-44.337141457	-439.67981379	-566.83805953	-567.10941929	-487.65416747	-342.00780177	-134.17523777	130.32600165	404.70058872	442.35792249	453.3049702	464.75787884	476.50380753	488.22965723	499.62233732	510.37749555	520.20730775	528.85030846	536.07428003	541.68699317	545.53940273	547.525947	486.13943286	100.76329028	-145.04775382	96.717006187	446.02011896	457.05361232	406.93128743	316.44584407	186.55109198	18.503338756	-186.02224373	-407.12645506	-460.55766168	-469.38677744	-478.56003357	-488.38189995	-498.7582863	-509.58732196	-520.76223342	-532.17261994	-543.70574775	-555.24819289	-566.68628498	-577.90633913	-588.79808499	-599.25441944	-609.17193524	-618.45290478	-627.00488723	-634.74459417	-641.59581853	-647.48955103	-652.36913594	-656.1858865	-658.90166521	-660.49072214	-660.91764562	-575.47526308	-360.85268129	-43.747833226	315.19757683	377.40535753	387.63324327	395.51639761	400.1833252	400.46862752	56.094086573	36.14822911	195.53447797	165.45160272	20.849109728	-255.03141493	-597.62067396	-642.98921272	-653.20136579	-660.9128367	-664.93641983	-647.95540996	-448.02800938	-110.67610672	273.89825809	374.70572138	381.46363735	382.43592577	201.80719542	-135.36539287	-523.46108584	-654.67016425	-660.51331807	-558.22901643	-191.03529005	37.529815163	-101.38172048	-466.83505311	-662.33993778	-664.71680003	-629.95224045	-561.32790323	-459.32766506	-324.57172544	-158.02335705	39.204264174	260.42810025	368.7109602	379.65365674	388.24614236	397.41678421	407.14772214	417.37422934	428.02825505	439.03783764	450.32898669	461.82643125	473.45256252	485.12966988	496.77906196	508.32280017	519.68328737	530.78419135	541.55128638	551.91194876	561.79683647	571.13986538	579.87732948	587.95185859	595.30898784	601.89835714	607.67700786	612.60493517	616.65002559	619.78519536	621.98842435	623.24572446	623.30731288	316.00028702	-47.382226267	43.284709768	421.24008845	441.39144984	387.41593024	289.2777097	148.06148858	-34.635057151	-256.07611755	-410.70746475	-422.91408531	-432.00251517	-441.82530901	-452.29017636	-463.27851837	-474.66556552	-486.32141265	-498.11369603	-509.90814926	-521.57073595	-532.96846479	-543.97197001	-554.45598482	-564.30092153	-573.39587445	-581.63572903	-588.92791834	-595.18967294	-600.34804028	-604.34625308	-607.13844742	-608.69166587	-603.28736697	-293.52410896	7.36906037	-178.9312515	-455.2322083	-172.83644171	3.7788570592	-286.27468153	-426.58792886	-589.735384	-435.04811877	-123.56906547	270.02945924	441.06929552	450.04399105	453.31201079	365.50612329	87.014239971	-301.30422351	-586.33066633	-602.05825769	-604.26357004	-370.85543145	16.432166703	199.39010856	19.303036398	-360.34913821	-602.05900563	-608.07351717	-573.07367968	-494.45106945	-373.0677378	-210.26390389	-7.7726227593	231.6436189	426.0661566	446.71032662	456.21405351	466.30833007	476.98834244	488.13849962	499.6377078	511.36051272	523.17912455	534.96479074	546.5890812	557.92538555	568.84988464	579.24400547	588.99382789	597.99364809	606.14554346	613.35968747	619.55834522	624.67388489	628.64988842	631.4439792	633.02500411	633.0483532	315.29741028	-39.998252881	68.728857413	440.8994394	457.81025181	421.58247125	356.21707902	262.03048932	139.55346143	-10.66324957	-187.71638345	-371.44635052	-417.39840072	-425.056092	-432.76465265	-441.05815415	-449.90301708	-459.25525016	-469.0666717	-479.28775143	-489.86676639	-500.74979248	-511.88183164	-523.20629412	-534.66562884	-546.20197721	-557.75653826	-569.27097808	-580.68651653	-591.94527564	-602.99065304	-613.76589114	-624.21715224	-634.29016206	-643.93482243	-653.10222346	-661.74519652	-669.82060353	-677.28680996	-684.10632342	-690.24524554	-695.67058981	-700.35652866	-704.27852954	-707.4165173	-709.75520396	-711.2824154	-711.99012446	
3	1	483.87777588736964	175414.33413130976	0.027827842774587358	0.0018026319658910434	0.16633187050883233	0.002319053986830707	0.017991670313504845	1.4185153420232641	2.0441448088	-212.4447729	-488.07817785	-490.16961356	-211.7418961	205.77362695	460.86779144	462.08688746	251.10578502	-109.22745426	-474.5468276	-501.09722647	-508.13344814	-508.77640691	-226.17028493	-367.92942522	-507.15912059	-342.34754801	-33.910448361	362.34909452	482.78486018	493.48964441	500.95808943	504.10633743	220.91299842	329.03806067	450.93404253	481.85233818	378.06204476	193.13949944	-65.180474272	-381.12967991	-487.57338225	-499.1203968	-510.84087502	-522.54493404	-533.7450927	-543.97482829	-552.80909781	-559.8761483	-564.88470158	-567.62493546	-554.57112695	-217.59071873	80.051387275	-93.989803449	-411.75755315	-157.21381289	-244.0905685	-379.69106299	-560.41460169	-416.56677864	-106.73928523	293.54220936	436.44391253	445.28901201	449.04706068	376.13821521	102.95863152	-291.35109843	-550.82233456	-562.17467501	-564.90275904	-335.95407511	56.990633789	192.49009175	-38.287286622	-439.15601539	-568.02276307	-568.29595013	-487.73112851	-340.05085309	-129.31596732	138.87037755	408.69251704	440.67455312	451.66591709	463.19221095	475.01358958	486.81476306	498.2806268	509.10487341	518.99782981	527.69635094	534.96672746	540.61549523	544.49265168	546.491957	484.2481978	93.490388659	-155.74580466	89.395130876	443.53780163	454.70707972	403.88481094	312.13576432	180.42706928	10.032581109	-197.33720952	-415.95145566	-460.34506046	-469.10647706	-478.33739629	-488.22233341	-498.66537438	-509.56397296	-520.81066919	-532.29435312	-543.90156679	-555.51815763	-567.0297251	-578.32185401	-589.28356565	-599.80706892	-609.78829229	-619.1288804	-627.7357986	-635.52522343	-642.42045831	-648.35205064	-653.26298076	-657.10424914	-659.83747332	-661.43673794	-661.86640387	-575.23084297	-357.61111839	-36.078537278	320.16098715	370.43144455	380.68251047	388.61588112	393.31276943	393.59990403	44.416271397	24.191875762	185.80390789	155.30093392	8.679108588	-271.05392132	-607.63853602	-641.40984925	-651.67787229	-659.43882907	-663.488257	-646.2701122	-443.55078282	-101.48791747	284.70413054	367.87926301	374.48186084	375.45715579	192.30599704	-149.57509538	-541.2759979	-653.67935444	-659.08209585	-555.36942328	-183.04794366	48.701323462	-92.15007193	-462.70726296	-660.87606061	-663.26855475	-628.01851806	-558.43586166	-455.01121943	-318.37345176	-149.49929233	50.473297873	271.97987449	362.81123686	372.66942585	381.29932882	390.5284668	400.32189967	410.61409867	421.33656308	432.4168684	443.78054891	455.3518501	467.05266466	478.80478277	490.52900756	502.14689979	513.58036384	524.75257719	535.58883728	546.0160539	555.9644396	565.36748574	574.16107707	582.28747488	589.69186445	596.32356217	602.13933346	607.09891651	611.16999156	614.32530086	616.54268283	617.80805951	617.87004356	306.27156323	-62.1820939	29.75097989	412.98364307	433.41533236	378.68606011	279.17736747	135.98910233	-49.25859209	-273.31539659	-408.1822313	-418.67498279	-427.81219969	-437.69799418	-448.23008337	-459.28901162	-470.74920624	-482.47992754	-494.34796153	-506.21817931	-517.95568348	-529.4266284	-540.50081733	-551.05217875	-560.96035682	-570.11373339	-578.40651868	-585.74555115	-592.04752966	-597.23903303	-601.26292932	-604.07306	-605.63625594	-600.15648755	-286.0674745	19.027070977	-169.8748713	-450.03543406	-163.6960916	15.38555778	-278.71849545	-420.99151563	-586.45775043	-429.61032191	-113.78155514	284.47600627	433.02992158	441.63348204	444.91673882	355.88466729	73.503724717	-320.20106264	-586.42473128	-599.01493472	-601.19912511	-364.53150881	28.16385171	213.54058459	30.938648118	-354.01555982	-598.97492924	-605.02070461	-569.53210443	-489.81155199	-366.73313694	-201.65579424	3.6629180702	246.07308372	422.22026105	438.3172664	447.83635898	457.99480083	468.74340235	479.96518468	491.5382608	503.33637001	515.23090157	527.09227586	538.79123779	550.20036366	561.19503893	571.65592893	581.46838172	590.52601445	598.73027552	605.99076134	612.22923768	617.37763826	621.37918262	624.19122192	625.78240294	625.80590201	303.61765832	-56.636322734	53.609130467	430.9769843	448.12396416	411.39027304	345.11207186	249.61019344	125.42280902	-26.891553422	-206.34817479	-381.35281643	-413.40317195	-420.82553473	-428.57923994	-436.92591318	-445.82758971	-455.23989897	-465.11434656	-475.40108388	-486.04805573	-497.00099159	-508.20454012	-519.60174805	-531.1346946	-542.74514952	-554.37393411	-565.96233974	-577.45120869	-588.78229118	-599.89862125	-610.74307673	-621.26147405	-631.39919031	-641.1058055	-650.33209558	-659.03058888	-667.15787023	-674.67203766	-681.53535793	-687.71371492	-693.1739102	-697.88995032	-701.83714514	-704.99529053	-707.34900031	-708.88602216	-709.59827737	
4	1	483.775108492886	174829.88665905135	0.02754762598246224	0.00415252902339832	0.16057370306687355	0.001999284298169076	0.020834154496917612	1.4111664515016744	2.0373341039	-211.73694703	-487.72225177	-489.80296949	-212.30292066	203.82430174	460.26775414	461.54344116	251.26528795	-107.86742958	-473.48499891	-500.56275298	-507.50679777	-508.14117872	-226.47664703	-367.76347256	-506.46157607	-342.19912456	-34.789678418	360.49504464	485.02595756	495.61246824	502.98123236	506.08740085	223.83760863	331.60241857	453.09444743	483.93848496	380.49400123	196.18758294	-61.271742724	-376.61668985	-487.08446489	-498.51961949	-510.08358534	-521.63118732	-532.68162324	-542.77460858	-551.49078232	-558.46336106	-563.40496042	-566.10856308	-553.0982474	-217.24059433	79.410463161	-94.050855146	-410.75921786	-157.06356933	-243.65086797	-378.79956667	-558.78955901	-415.42100977	-106.62580275	292.59070654	441.41877189	450.22011693	453.92879846	381.26287151	108.99347066	-284.01296418	-548.78918925	-560.53548764	-563.23197229	-335.04610218	56.589640374	191.65422397	-38.354247702	-437.88146694	-566.29367471	-566.5651395	-486.26874467	-339.08051207	-129.04775503	138.2490145	411.12846831	445.65553735	456.51276207	467.88506719	479.54842011	491.19183653	502.50442556	513.18397455	522.94468272	531.52692274	538.70010948	544.27336499	548.09869194	550.07127071	488.03489597	98.579017867	-149.83001974	94.494152441	447.48144491	458.62524008	407.97230151	316.52894541	185.25907889	15.432311505	-191.25184389	-411.65680246	-459.92985096	-468.62920731	-477.73730279	-487.49010931	-497.79354888	-508.54645592	-519.64280725	-530.97297824	-542.42502765	-553.88632887	-565.24401067	-576.38518733	-587.20036373	-597.58318968	-607.43098489	-616.6467088	-625.13857043	-632.82386688	-639.62692683	-645.47922613	-650.32450734	-654.11442596	-656.81111263	-658.38899841	-658.8129206	-572.46601305	-355.57135634	-35.109787405	323.89887016	379.88977617	390.02432291	397.85184894	402.48595879	402.76925522	54.749036582	34.592024815	195.66559612	165.2642523	19.130943233	-259.67010918	-600.04843034	-638.37102798	-648.50557014	-656.16279918	-660.15809536	-642.99731817	-440.95341136	-100.03020895	286.60677802	377.30789788	383.90305035	384.86664042	202.32570678	-138.41630858	-529.65680692	-650.2686323	-655.79233745	-552.42521594	-181.34424049	49.636349325	-90.745755786	-460.06787279	-657.55364123	-659.9314791	-624.79888889	-555.44806877	-452.36801793	-316.18550153	-147.87399504	51.436507839	273.5043383	371.91614792	382.11108347	390.63293563	399.73887264	409.40139372	419.55600774	430.13513516	441.06731989	452.27909165	463.69570865	475.2401077	486.83512447	498.40262081	509.86520602	521.14582848	532.1686926	542.86009447	553.14792093	562.96331743	572.24066444	580.91670377	588.93446857	596.23987688	602.78292261	608.52094916	613.41423292	617.43088617	620.54401556	622.73175575	623.98021699	624.04137244	313.48107946	-53.746391061	37.880379068	419.83666782	440.20097866	385.65405402	286.47690558	143.76571673	-40.864834832	-264.39121605	-407.4892164	-418.48282522	-427.50136128	-437.25503958	-447.64633735	-458.55743079	-469.86442648	-481.43833248	-493.14771558	-504.85925328	-516.43985146	-527.75745375	-538.68360384	-549.09391555	-558.86964192	-567.9006569	-576.08258494	-583.32350984	-589.54124402	-594.6633478	-598.63345298	-601.40601807	-602.94831733	-597.4868065	-284.44427879	19.633975881	-168.63858076	-447.86453075	-162.47921696	16.005780354	-277.11837347	-418.91702169	-583.78064295	-427.45580047	-112.67931465	284.64014255	442.85919648	451.51225438	454.75386238	366.01842892	84.578326375	-307.83137475	-582.70876301	-596.39422331	-598.56291247	-362.68382802	28.703411288	213.52524093	31.531699661	-352.13956244	-596.28744938	-602.32019862	-566.94983976	-487.49490117	-364.82656018	-200.29922403	4.3355383208	246.09972381	430.50236528	448.22524013	457.63486856	467.65778229	478.26270406	489.33447479	500.752843	512.39323607	524.12876253	535.83157495	547.37414613	558.63075575	569.47845512	579.79950482	589.48078555	598.41733661	606.51192379	613.67535204	619.83043295	624.91001015	628.85806219	631.63251039	633.20242062	633.22560556	312.11083233	-46.944327079	62.933809068	439.04431416	456.13413559	419.52283419	353.46545948	258.2817753	134.50815981	-17.298757408	-196.19028299	-375.7205399	-413.17851339	-420.60645472	-428.25814406	-436.49327896	-445.27595998	-454.56244634	-464.30489314	-474.45411822	-484.95876223	-495.76528016	-506.81906059	-518.06391158	-529.44268666	-540.89793399	-552.37126596	-563.80475874	-575.14004545	-586.31965497	-597.28738287	-607.98687057	-618.36465883	-628.36685494	-637.94371291	-647.04666671	-655.62887928	-663.64751581	-671.06123447	-677.83280645	-683.92857167	-689.31577552	-693.96877201	-697.86320106	-700.97912862	-703.30137421	-704.81784928	-705.52058311	
5	1	482.97618423654023	175243.14913712873	0.027577564859069023	0.006368262286302359	0.16689869627901752	0.0032366643606735273	0.017526850136660374	1.4151467921166534	2.0421499495	-212.23745029	-487.58376794	-489.65689296	-211.50089017	205.60571937	459.98882601	461.19743284	250.42222462	-109.55934195	-474.18967328	-500.5436049	-507.51009072	-508.14664912	-225.81631947	-367.43711861	-506.69919895	-342.04846425	-33.912365971	361.8631145	481.6619713	492.26455477	499.65865485	502.77554561	219.85857199	327.87811614	449.65467183	480.53704119	376.84803563	192.10595426	-65.961906254	-381.4940868	-487.44590861	-498.88557192	-510.4893569	-522.07683364	-533.16542858	-543.29326673	-552.0395389	-559.03619515	-563.9948587	-566.70779736	-553.66672793	-217.01517532	80.336123393	-93.535222373	-410.99446822	-156.6991345	-243.491108	-378.9592727	-559.85895054	-416.15150706	-106.62637134	293.20760856	435.56260573	444.33024361	448.05105699	375.21336249	102.30037187	-291.62159412	-550.60870794	-561.91392874	-564.61583386	-335.89057853	56.670539317	192.03304471	-38.51912046	-438.98470433	-567.68173842	-567.9545398	-487.46834054	-339.93218474	-129.40295305	138.52027042	407.82124539	439.75925912	450.64385402	462.05536489	473.75899244	485.44261554	496.79426887	507.51069617	517.30510974	525.9169857	533.11494267	538.70744359	542.54598005	544.52537047	482.34235429	91.965881799	-157.02606368	87.875641408	441.666852	452.82262204	402.04995017	310.39044048	178.81027855	8.5820775225	-198.58395906	-416.89420112	-461.37112944	-470.05621442	-479.1953511	-488.98182903	-499.32084796	-510.11088662	-521.24555554	-532.61485155	-544.10644684	-555.6073259	-567.00422771	-578.18387676	-589.03639981	-599.45507943	-609.33688077	-618.58442814	-627.10561362	-634.81744872	-641.6440008	-647.51650908	-652.37852188	-656.18152774	-658.88752653	-660.47086102	-660.89624709	-574.34523292	-356.93788112	-35.719182197	319.83028893	369.86354729	380.01514113	387.86952942	392.51963464	392.80390917	43.961041156	23.756382296	185.21069891	154.73749246	8.2587538239	-271.20127796	-607.53330146	-641.45724792	-651.62367707	-659.30733253	-663.31642466	-646.11508287	-443.59358514	-101.8645445	283.91121707	367.32450581	373.87545035	374.84131708	191.86889361	-149.67855853	-540.96963653	-653.57313335	-658.9506838	-555.33922333	-183.38108867	48.141333293	-92.57260671	-462.76728374	-660.69636676	-663.08597591	-627.87033936	-558.35558794	-455.03187672	-318.52745241	-149.81809713	49.958539623	271.20872436	362.25171135	372.08030134	380.6258103	389.76306481	399.45894812	409.64862758	420.26428652	431.23422195	442.48470988	453.94075041	465.52501425	477.16007059	488.76751146	500.26967894	511.58925532	522.65018328	533.37850438	543.70185646	553.55114721	562.86053048	571.56652965	579.61198117	586.9426163	593.50825629	599.26609722	604.17627833	608.20680177	611.33068132	613.52597616	614.77874854	614.84011517	303.5457205	-64.548119082	27.295238192	410.15376904	430.56533269	375.88947016	276.47788701	133.42935779	-51.637541863	-275.47400153	-410.86853253	-421.35976493	-430.40676779	-440.19410129	-450.62128154	-461.57005283	-472.91609351	-484.52996619	-496.27978379	-508.03176343	-519.65235139	-531.0090353	-541.97291525	-552.41917554	-562.22865917	-571.29085979	-579.50104142	-586.76697047	-593.00617555	-598.14596683	-602.12978147	-604.91192069	-606.45954578	-600.98512504	-287.20262814	17.594126117	-171.12346876	-451.0083559	-164.94844898	13.958432897	-279.85860695	-421.99211327	-587.20337092	-430.50900815	-114.9884557	282.8622515	431.68018702	440.2238148	443.47483878	354.52965271	72.424282711	-320.89439995	-587.26533695	-599.90002213	-602.06501812	-365.62836325	26.683709412	211.87433667	29.450599501	-355.1271799	-599.75983838	-605.82277013	-570.3688029	-490.72604891	-367.76774478	-202.85149933	2.2668113411	244.43039284	420.76310238	436.93768579	446.36546938	456.42279296	467.06433069	478.17433397	489.63213175	501.31272109	513.08877232	524.83199656	536.4144262	547.70990683	558.59506515	568.9517552	578.66646705	587.63387754	595.75641672	602.94458151	609.12091697	614.21803481	618.17972015	620.96374899	622.5390804	622.5623454	300.68852181	-59.213623635	50.924242194	427.92377623	445.05397664	408.35613354	342.14261255	246.73393341	122.66774215	-29.497969941	-208.77708972	-383.76823714	-416.12526638	-423.48936972	-431.16616839	-439.42971074	-448.24271888	-457.56127302	-467.33736215	-477.52163424	-488.06255258	-498.90638726	-509.99833828	-521.28201967	-532.70008761	-544.19489186	-555.7078432	-567.18081779	-578.55524718	-589.77346181	-600.77906315	-611.515498	-621.92912254	-631.96585794	-641.57578644	-650.71017429	-659.32202271	-667.36834896	-674.80766846	-681.60262383	-687.71943878	-693.12524556	-697.79430964	-701.70218682	-704.82887421	-707.15913891	-708.68085063	-709.38601112	
6	1	480.80212768556305	174050.9556142009	0.028073216472848012	0.0019655967090363227	0.15918673974315475	0.00414940512151613	0.020002941038077076	1.4395973593415266	2.0282570358	-210.79358155	-485.81747044	-487.92576641	-211.66208173	202.61081451	457.44355808	458.69958372	249.35829653	-108.17435436	-471.97376198	-498.9931255	-506.03717825	-506.68077354	-226.27116028	-366.92850162	-505.42782164	-341.89721939	-35.857394508	357.64248818	481.12388259	491.85493484	499.33076696	502.48209327	221.48982704	328.77450536	449.72473633	480.42458628	377.44098553	193.95571971	-62.356535729	-376.28811331	-485.99779051	-497.5853913	-509.31742214	-521.03291357	-532.2440114	-542.48373833	-551.32663624	-558.40058908	-563.41403419	-566.15694444	-553.20459448	-218.84331	76.486062368	-96.202422366	-411.50372841	-158.93838672	-245.1399073	-379.68647237	-559.71925985	-416.9894699	-109.57005828	287.87874119	436.00827416	444.92107765	448.68345238	376.3412787	105.28493754	-285.97224969	-550.00373726	-561.85152689	-564.58639994	-337.41718128	52.473743729	186.93933517	-42.0443647	-439.7976075	-567.71894785	-567.99147206	-488.05282701	-341.52037179	-132.42338739	133.68325604	405.65627768	440.29206012	451.30494636	462.84257211	474.67549775	486.48819741	497.96525981	508.80007842	518.70269722	527.40971415	534.68719162	540.34147651	544.22241977	546.2236778	484.46369778	96.742987809	-150.5602902	92.675328491	444.08384072	455.17501269	404.74775147	313.71180895	183.02679767	13.956669923	-191.80807828	-411.66910696	-460.41489893	-469.23793179	-478.47838965	-488.37299038	-498.82623128	-509.73547448	-520.9931553	-532.48805529	-544.10660567	-555.73454239	-567.25735316	-578.56051103	-589.53292893	-600.06671045	-610.05768244	-619.40739347	-628.022718	-635.81975073	-642.72172015	-648.65910584	-653.57483244	-657.41985257	-660.15574628	-661.75657289	-662.18665847	-576.22445795	-360.29614622	-41.26231522	316.24348153	372.12387858	382.40244821	390.34373698	395.04521999	395.3326352	48.862973844	28.79576893	189.15169862	158.8858039	13.403572139	-264.15533164	-603.98815818	-643.2658661	-653.54794013	-661.31649749	-665.36988114	-648.28556149	-447.14183412	-107.73755974	277.54474484	369.49789983	376.19212026	377.16973631	195.44208925	-143.78179814	-533.46035463	-655.32517403	-660.94008586	-558.03350266	-188.60582826	41.346664442	-98.409987082	-466.08708456	-662.7672109	-665.15382439	-630.17776271	-561.13592584	-458.51513431	-322.93936079	-155.37774203	43.045962393	264.40411612	364.00420509	374.37402587	383.01987038	392.25819384	402.06119765	412.36344926	423.09638627	434.18751368	445.56229304	457.14489587	468.85713856	480.62073491	492.3564107	503.98565007	515.43028114	526.61340633	537.46025015	547.89765099	557.85575322	567.26798328	576.07016327	584.2044981	591.6161195	598.25429437	604.07574589	609.04017295	613.1152242	616.27361527	618.49316295	619.75977552	619.82182011	310.64518675	-54.946729699	36.27180968	416.52622872	436.79963931	382.49574116	283.76046316	141.68510481	-42.122877448	-264.72007839	-409.83588172	-421.11559705	-430.26575253	-440.1612428	-450.70361936	-461.77334884	-473.24473657	-484.98691522	-496.86654067	-508.74835204	-520.49732016	-531.97946871	-543.06447375	-553.62614064	-563.54399598	-572.70631261	-581.00719743	-588.3533979	-594.66153152	-599.85810541	-603.88593182	-606.69880714	-608.26352984	-602.82635204	-291.17854321	11.545009246	-175.88872434	-453.87172558	-169.75790768	7.9318785907	-283.88630016	-425.05350833	-589.23622261	-433.60786445	-120.23382253	275.41419852	435.43532877	444.23129364	447.5201778	359.18009312	78.9939091	-311.67221945	-587.5848271	-601.61255098	-603.81387831	-368.98572141	20.657835054	204.67321192	23.490518395	-358.47172104	-601.62553589	-607.65275237	-572.43998139	-493.33904359	-371.21723489	-207.42292814	-3.6998417733	237.02942912	422.70430162	440.89535096	450.44309447	460.61173934	471.37084571	482.60358855	494.18796804	505.99760042	517.90374931	529.77670856	541.4870968	552.90736592	563.91277964	574.38388674	584.20592331	593.27240259	601.48467672	608.75225382	614.99682326	620.15025226	624.1557049	626.97049072	628.56322583	628.58674785	308.9026583	-48.553248259	60.835340632	435.2701726	452.28388783	415.83570316	350.0726382	255.31303213	132.09087332	-19.039700809	-197.14263761	-377.02993945	-415.72179064	-423.2704671	-431.03353975	-439.38840698	-448.29877915	-457.72028143	-467.60437335	-477.90115769	-488.55852839	-499.52216193	-510.73665292	-522.14499244	-533.68920317	-545.31099797	-556.95114034	-568.55086431	-580.05095439	-591.3931039	-602.52029124	-613.37533845	-623.90400903	-634.05162675	-643.76772236	-653.00302371	-661.71001279	-669.84523202	-677.3667385	-684.23676214	-690.4211535	-695.88668174	-700.60732799	-704.55837802	-707.71960795	-710.07561659	-711.61413965	-712.32709051	
7	1	481.565047582494	174050.12518590086	0.027855945988880977	0.005255517815418009	0.15825821310937813	0.0038537560556200384	0.020766106899395273	1.4259145169589362	2.0282473587	-210.79257584	-486.38972172	-488.49096407	-212.22859749	202.04297135	457.69836048	458.97908789	249.63879951	-107.89215141	-472.21977376	-499.45315877	-506.44368155	-507.08230249	-226.67402712	-367.33069732	-505.76831803	-342.23849602	-36.20013139	357.39550109	482.58006516	493.2416315	500.65966677	503.78659264	222.79566707	330.07983352	451.02997256	481.73636042	378.75325102	195.26886064	-61.042172251	-375.09856346	-486.45300057	-497.97373412	-509.61501331	-521.23977938	-532.36405675	-542.52448563	-551.29890275	-558.31807379	-563.292694	-566.01436272	-553.06207456	-218.70238538	76.625663613	-96.061997193	-411.36119044	-158.79705378	-244.99816308	-379.54408571	-559.45753234	-416.72842338	-109.31047853	288.19920298	438.44697178	447.32658539	451.06029021	378.71846168	107.66341378	-283.59372544	-549.57419333	-561.57191958	-564.28805582	-337.11992103	52.769165043	187.23698176	-41.745625581	-439.48842387	-567.37884167	-567.65111546	-487.71285181	-341.18109572	-132.08510898	134.02082858	407.14068703	442.72747076	453.66154701	465.10987729	476.85116784	488.57238813	499.96057036	510.71148243	520.5374138	529.17700223	536.39812177	542.008619	545.85950762	547.84526759	486.08558224	98.366722187	-148.93578152	94.298676651	445.71098001	456.80483047	406.37780985	315.34230168	184.65791392	15.588592866	-190.17595602	-410.70182397	-460.81954048	-469.60057778	-478.76978694	-488.5877685	-498.96005804	-509.78481837	-520.95531795	-532.36119962	-543.88977413	-555.42766229	-566.8612386	-578.07686305	-588.96430882	-599.41651509	-609.33011543	-618.60742082	-627.15602693	-634.89267822	-641.74119771	-647.63260335	-652.51026179	-656.32550548	-659.040212	-660.62864156	-661.05539649	-575.09360611	-359.16632461	-40.133982839	318.38174902	376.16245768	386.37078328	394.25067869	398.91575758	399.20094712	52.732938826	32.665829658	193.02099423	162.75524391	17.273706274	-260.28387755	-601.29760259	-642.05405897	-652.25826055	-659.9666673	-663.98866127	-646.90442314	-445.76165546	-106.3589989	279.29126098	373.5293276	380.20688174	381.17754934	199.45076933	-139.77149996	-529.62203415	-653.93341371	-659.58491374	-556.67882153	-187.25290973	42.698931941	-97.057052778	-464.73175531	-661.37936204	-663.76417059	-628.78827579	-559.74676833	-457.12646642	-321.55133976	-153.99052035	44.432785914	266.06017987	367.91916401	378.40114249	386.98344351	396.15031248	405.87740359	416.09987311	426.74969258	437.75492857	449.04161985	460.53452519	472.15606644	483.82856365	495.47335653	507.01253725	518.3685393	529.46506062	540.22790477	550.58447674	560.46546187	569.80480215	578.53881667	586.61015794	593.96438258	600.55115038	606.32751968	611.25350143	615.29699484	618.43092684	620.63328599	621.89008972	621.95165382	312.7764956	-52.813824886	38.404279273	418.65697689	438.93043278	384.62679372	285.89198681	143.81730633	-39.98980497	-262.62330176	-410.05713768	-421.50840364	-430.58932809	-440.408205	-450.86894011	-461.85294388	-473.23549539	-484.88674077	-496.67436853	-508.46416529	-520.12214757	-531.51537656	-542.51453757	-552.99441326	-562.83546318	-571.92682539	-580.16342686	-587.4527372	-593.71201964	-598.86835045	-602.86498474	-605.65607672	-607.20868196	-601.7715301	-290.1252082	12.59692109	-174.83591822	-452.81596842	-168.70350607	8.9854335873	-282.8313526	-423.99740728	-588.11157348	-432.48395785	-119.11141108	276.60307554	439.33561925	448.13138647	451.39582719	363.056164	82.871316795	-307.79537491	-586.19351189	-600.59976774	-602.79003104	-367.96299454	21.678728162	205.7032193	24.521390235	-357.43849579	-600.53902189	-606.58147229	-571.36886931	-492.26830892	-370.14708288	-206.35355763	-2.6314318249	238.12399006	426.06901263	444.8145807	454.29630328	464.38633326	475.06212297	486.20787783	497.70254608	509.42072282	521.23466863	533.01568181	544.63538298	555.96721173	566.8873978	577.27741501	587.02338819	596.01965524	604.16833223	611.37962808	617.57583858	622.68935862	626.66379241	629.45678008	631.03718081	631.06052067	311.37795639	-46.07641583	63.311651148	437.74465816	454.75825719	418.31024642	352.54749522	257.78834126	134.56677038	-16.563086263	-194.67035714	-375.71490784	-416.11277357	-423.64744723	-431.35116804	-439.64135375	-448.48272333	-457.83126406	-467.63881203	-477.85585645	-488.4306948	-499.30942425	-510.43706846	-521.75706002	-533.21187056	-544.74366436	-556.29366365	-567.80355754	-579.21458911	-590.46890324	-601.5099199	-612.28090392	-622.72803883	-632.79707181	-642.43792444	-651.60170617	-660.24126696	-668.31348578	-675.77674453	-682.59356564	-688.7300641	-694.15326643	-698.83735526	-702.75780773	-705.89455661	-708.23231995	-709.75892844	-710.46635809	
8	1	481.4481344820608	174098.4499014949	0.028028653808368408	0.002760222213895093	0.15844458815952117	0.0037533644683978035	0.020596794165977907	1.4332481499961356	2.028810498	-210.85110202	-486.25764491	-488.3672896	-212.02821926	202.3583935	457.82677272	459.09919512	249.70078377	-107.92943816	-472.19926212	-499.3918396	-506.42709597	-507.06984927	-226.58371903	-367.27944231	-505.74089559	-342.1656698	-36.042333939	357.64104983	482.24494325	492.96822365	500.43426662	503.58145075	222.51250853	329.82646225	450.81013057	481.52411004	378.51240756	194.97707305	-61.405128382	-375.51711031	-486.28020854	-497.86313956	-509.57978626	-521.27987311	-532.47622914	-542.70249154	-551.53376165	-558.59841274	-563.60526552	-566.34456904	-553.38868469	-218.93616113	76.473919595	-96.26168764	-411.64830505	-159.0140444	-245.23908729	-379.82236628	-559.75152553	-416.98278808	-109.4794891	288.12626818	437.62312079	446.54137474	450.29900842	377.93709431	106.80678845	-284.55882879	-549.84561468	-561.79516146	-564.52752745	-337.29631982	52.701033835	187.20595387	-41.840230102	-439.70000469	-567.65214914	-567.92473746	-487.9642791	-341.39183872	-132.2377968	133.9420746	406.71559645	441.91581027	452.91708381	464.4395602	476.25692673	488.05409352	499.51606438	510.33663596	520.2262335	528.92180132	536.18970941	541.83655931	545.7123994	547.71102591	485.93419309	98.107683509	-149.26352084	94.038470956	445.54786137	456.64445703	406.20343544	315.14265141	184.42197936	15.305716301	-190.51591273	-410.84542158	-460.36566047	-469.18871204	-478.41714557	-488.29873795	-498.73823363	-509.63313194	-520.8760097	-532.35579469	-543.95906749	-555.57171428	-567.07937336	-578.36766836	-589.3256583	-599.84558863	-609.82342319	-619.16083999	-627.76483598	-635.55161615	-642.44450997	-648.3740884	-653.28335116	-657.12331536	-659.85561156	-661.4543332	-661.88385325	-575.89819573	-359.91096239	-40.790034948	317.49404476	374.56786284	384.83747499	392.76836899	397.463672	397.75070933	51.186504799	31.113824032	191.51351096	161.23935741	15.717427075	-261.91722019	-602.53944593	-642.65228857	-652.92161922	-660.67996573	-664.72801961	-647.63903807	-446.44042345	-106.94353113	278.67609021	371.93336626	378.63460919	379.61120717	197.83397104	-141.48248299	-531.37828013	-654.6556863	-660.30039398	-557.36573007	-187.83724773	42.178398589	-97.616389138	-465.39366522	-662.12266417	-664.50992546	-629.52431966	-560.46364295	-457.81484869	-322.20207983	-154.59473717	43.883602801	265.47424789	366.37228646	376.81815554	385.45409822	394.68030982	404.47042465	414.75912958	425.47795352	436.55449687	447.91431919	459.4816917	471.17853362	482.92666165	494.64690585	506.26085358	517.69043575	528.85885592	539.69143689	550.11511327	560.0601213	569.45997493	578.25058066	586.3742194	593.77609504	600.40554117	606.2193379	611.17723708	615.24692992	618.40116792	620.61779705	621.88274412	621.94470712	312.68370695	-53.008110256	38.235320451	418.59359781	438.87267959	384.55396322	285.79174276	143.67761549	-40.18052971	-262.8616875	-409.24145509	-420.62202424	-429.76081481	-439.64330046	-450.17181467	-461.22698823	-472.68329189	-484.41003039	-496.27403495	-508.14022257	-519.87374162	-531.34079194	-542.41122097	-552.959	-562.86381406	-572.01408287	-580.30405261	-587.64059334	-593.9404322	-599.13017296	-603.15270306	-605.96187965	-607.52454485	-602.08588337	-290.35303341	12.453148196	-175.03173152	-453.09019889	-168.89885321	8.8394216832	-283.05838712	-424.26400173	-588.47536751	-432.80454214	-119.34498796	276.45654259	438.04877694	446.86419996	450.14919825	361.78500771	81.522367666	-309.25222283	-586.6392299	-600.87820069	-603.07926448	-368.18702866	21.562879386	205.63562168	24.403487791	-357.6628558	-600.87597372	-606.90961038	-571.68723069	-492.56470816	-370.40957538	-206.57057314	-2.7918821949	238.02180731	425.03213534	443.52972489	453.06835362	463.22368143	473.9686417	485.18661431	496.75576116	508.54986469	520.44035783	532.29770496	543.99269486	555.39794711	566.38888948	576.84622781	586.65534908	595.70990658	603.91138214	611.16940288	617.40576114	622.55241375	626.5525995	629.36368406	630.95432484	630.97781593	311.20649234	-46.3471123	63.071326084	437.60832324	454.62667296	418.16854247	352.38753235	257.60206868	134.34628554	-16.825532193	-194.98069492	-375.59025277	-415.21525061	-422.77439717	-430.52759141	-438.8714807	-447.77013664	-457.17925032	-467.05034535	-477.33359013	-487.97694713	-498.92616426	-510.12590897	-521.51924733	-533.04827822	-544.65479117	-556.27962756	-567.8640987	-579.34906696	-590.67630234	-601.7888582	-612.62963178	-623.1444579	-633.27873221	-642.98205182	-652.20520939	-660.90074939	-669.02527137	-676.5368876	-683.39787764	-689.57413695	-695.0324784	-699.74691733	-703.692772	-706.84984514	-709.20275579	-710.7392558	-711.45126918	
9	1	479.5889277005957	172715.19193885196	0.02799163864079538	0.004563236304163463	0.14933099575190353	0.004714842246228782	0.02402893696734246	1.4380237112624648	2.0078823022	-208.67606744	-484.21520482	-486.33662339	-212.84812889	197.2686947	453.87385023	455.24317774	248.00481582	-105.93634706	-469.10860622	-497.30626402	-504.25564137	-504.89030907	-227.29753367	-366.54191026	-503.80152616	-341.91366071	-38.948138796	351.25053792	483.10123202	493.73627336	501.10837837	504.21585465	226.04627927	332.25323584	451.99212107	482.4318593	380.4827741	198.84069844	-54.896841558	-366.52755499	-484.66013543	-496.18050824	-507.74959952	-519.30203031	-530.35708428	-540.45428747	-549.1741037	-556.14959628	-561.09326073	-563.79799322	-550.9757553	-219.97327694	72.390522419	-98.56323056	-410.69858001	-160.67036822	-246.00595662	-379.20094338	-557.73564205	-416.43963559	-112.10838639	281.81671862	442.01553762	450.98105355	454.69308753	383.07762279	114.74416175	-272.60154339	-547.05535042	-560.07261328	-562.78130713	-337.89410315	48.080668696	181.22540218	-45.458055751	-439.20973103	-565.86157795	-566.13161195	-486.99598574	-341.93551345	-134.93899989	128.50175067	405.52143556	446.38759963	457.27835445	468.65561394	480.32384406	491.97212634	503.2894429	513.97345487	523.73824204	532.32406858	539.50025298	545.07583755	548.9027631	550.87616621	489.73659235	105.9107068	-138.91438085	101.87782911	449.79786922	460.79748378	410.87678658	320.75534012	191.38311723	24.011370308	-179.69587202	-402.09556216	-460.16804945	-469.01373952	-478.12706607	-487.88397317	-498.19171923	-508.94911993	-520.05010842	-531.38501428	-542.84184949	-554.30794039	-565.67036855	-576.81620111	-587.63589716	-598.02306209	-607.87497269	-617.09454784	-625.58995821	-633.27846635	-640.0843693	-645.93911426	-650.78642031	-654.57792274	-657.27573636	-658.85428153	-659.27838088	-574.17970846	-360.42049155	-44.59105826	316.03923071	384.93948222	395.12836719	402.95965588	407.59572356	407.87913886	64.88991758	45.024296558	203.76938041	173.80751991	29.786721127	-244.98404129	-589.90001907	-641.33283809	-651.48380359	-659.14429541	-663.14126328	-646.22856313	-447.10541294	-111.11056031	273.14822953	382.16050261	388.9944044	389.96222405	210.0601111	-125.7561336	-512.87024104	-652.6255979	-658.71984728	-556.84700595	-191.13039365	36.517715234	-101.83501928	-465.81819556	-660.55484093	-662.92060807	-628.2958963	-559.94761504	-458.35769448	-324.14383922	-158.26544396	38.171742663	259.4154012	375.62665586	387.19083023	395.73725158	404.84747783	414.51405323	424.67291163	435.2564601	446.19321339	457.40967055	468.83105855	480.38028199	491.98014431	503.5524747	515.01985011	526.30518674	537.33265731	548.02852711	558.32065285	568.1401512	577.4213752	586.10104024	594.12215566	601.4306169	607.97639697	613.71682143	618.61215009	622.6304819	625.74491226	627.93356671	629.18254968	629.24373068	323.17291254	-38.748824982	51.553384063	427.98879018	448.05970637	394.30131475	296.55787603	155.90972712	-26.051926149	-246.73093605	-409.44457389	-422.64744911	-431.68167571	-441.43955135	-451.83519383	-462.75084707	-474.06256795	-485.64131068	-497.35558713	-509.07201907	-520.65745678	-531.97978869	-542.91050481	-553.32516698	-563.10497862	-572.13976766	-580.32511492	-587.56906579	-593.78939836	-598.91364267	-602.88540695	-605.65913069	-607.20207448	-601.81951552	-293.30234595	6.3805701482	-179.17030918	-454.35962112	-173.09985143	2.8049836653	-286.08175299	-425.83051172	-588.31387189	-434.24886901	-124.02280563	268.23764658	449.12230975	458.30120456	461.55114636	374.09847668	96.726886056	-290.04022332	-583.05382912	-600.57907814	-602.79140799	-370.32220316	15.407627896	197.66957487	18.306941165	-359.81797426	-600.59020221	-606.58298847	-571.72394525	-493.41761115	-372.52256971	-210.37364876	-8.6968409935	229.85887823	431.76261245	454.96583243	464.43464831	474.46256264	485.07193583	496.14833416	507.57147413	519.21673172	530.95716244	542.66486547	554.21226028	565.47357403	576.32580665	586.6511695	596.33649604	605.27678167	613.37475158	620.54117343	626.69882654	631.78052649	635.73022842	638.50583606	640.07640236	640.09959699	323.62687467	-30.240514787	78.049217633	448.72265843	465.56543794	429.48339131	364.38094525	270.57324108	148.58890303	-1.0235520622	-177.38310819	-364.01435908	-416.98532887	-424.77833559	-432.43876325	-440.67747	-449.46382573	-458.75419311	-468.50071128	-478.65417772	-489.16321162	-499.97424558	-511.03264538	-522.28219559	-533.66572585	-545.12576032	-556.60388699	-568.04215782	-579.38218154	-590.56646302	-601.53877432	-612.24273333	-622.62485846	-632.63123448	-642.21209462	-651.31885253	-659.9046516	-667.92663911	-675.34345597	-682.11785778	-688.21617042	-693.60562558	-698.26056655	-702.15662308	-705.27385279	-707.59706884	-709.11417764	-709.81720515	
10	1	483.9737355463255	175031.10452112742	0.028095837100828584	0.001256994212881542	0.16239761809623304	0.002236900192813779	0.019675360179266854	1.4206442371159298	2.0396789434	-211.98064252	-488.11514932	-490.23166833	-212.41223494	204.1936089	460.39196122	461.65271588	251.13254615	-108.41350889	-474.12512581	-501.23253631	-508.32175084	-508.96948991	-226.98078061	-368.43021816	-507.34688171	-342.89537478	-35.132120171	360.53713678	484.0245891	494.8206569	502.34461864	505.51624377	222.94160034	330.83044059	452.46149972	483.33036305	379.76682142	195.2482784	-62.50736743	-378.12260542	-487.55434305	-499.20775137	-511.01532073	-522.80627943	-534.08959579	-544.39528398	-553.29514519	-560.41466632	-565.46040654	-568.2209858	-555.19569609	-218.95149264	78.04090183	-95.620059205	-412.69345964	-158.70582387	-245.39277888	-380.69702539	-560.99980954	-417.4662524	-108.31564211	291.29762058	438.38942962	447.33803622	451.12439469	378.37483398	105.7920687	-287.66478141	-550.93234416	-562.66015741	-565.41090645	-336.96240921	55.124055178	190.34107703	-39.932119479	-439.92697588	-568.56624636	-568.84020707	-488.45139629	-341.09375958	-130.81926846	136.78453282	408.87071365	442.68348953	453.76274793	465.37466256	477.28381185	489.17260537	500.72359957	511.62821284	521.59462134	530.35772628	537.68208307	543.37279118	547.27873431	549.29288384	487.18510926	97.280992678	-151.4134898	93.19188365	446.57664225	457.72897671	407.01773989	315.46913842	184.0481888	14.025961827	-192.89520648	-412.88536207	-460.01749994	-468.87273654	-478.17246713	-488.13080144	-498.65137886	-509.63089613	-520.96109557	-532.53004226	-544.22343587	-555.92627628	-567.52331354	-578.89928297	-589.94238191	-600.5440189	-610.59934974	-620.0092888	-628.68011068	-636.52736956	-643.47379941	-649.44943196	-654.39682419	-658.26661279	-661.02013031	-662.63126897	-663.06412503	-576.61783779	-359.4735494	-38.643201658	319.57550095	373.68161859	384.01926515	392.01163765	396.74340308	397.03266966	48.611902321	28.431691141	189.69064771	159.25431391	12.952814885	-266.16911198	-605.46798018	-642.36351727	-652.7097787	-660.52836814	-664.60786213	-647.427334	-445.15088775	-103.83530852	282.76496752	371.07628877	377.77080224	378.75401817	196.00299176	-145.13119466	-536.59194509	-654.61131782	-660.15929742	-556.67320706	-185.16514154	46.080585413	-94.463090397	-464.21084834	-661.99330875	-664.39230374	-629.2192782	-559.78863978	-456.58995049	-320.25069685	-151.74547517	47.793559547	269.7611702	365.75606866	375.94297163	384.6406812	393.93842609	403.80457488	414.17319037	424.97526574	436.13783887	447.58589115	459.24310564	471.0307951	482.87016901	494.68144252	506.38559397	517.90394792	529.15911146	540.0758274	550.58046285	560.6027122	570.07557303	578.93445403	587.12118781	594.58055266	601.26148866	607.12044024	612.11684665	616.21814816	619.39688464	621.63072998	622.90550169	622.96794595	312.05021822	-55.599642731	36.132583869	418.52831446	438.9158199	384.30611529	285.01482038	142.13938021	-42.703657488	-266.43306622	-406.99461477	-417.92871434	-427.13559989	-437.09481133	-447.70509831	-458.84613566	-470.39141864	-482.20923689	-494.16538733	-506.12373777	-517.94838924	-529.50450235	-540.66091367	-551.29061566	-561.27235886	-570.49369638	-578.84805302	-586.24157552	-592.59034425	-597.82039291	-601.87416537	-604.7051604	-606.27996257	-600.8121659	-287.40934654	17.018840294	-171.47040585	-451.0191834	-165.30540963	13.385009828	-280.07651111	-422.03878886	-587.16011009	-430.65534786	-115.51657483	282.15884375	437.33922023	446.09628615	449.4050775	360.56751531	78.803493457	-314.05395734	-586.2112388	-599.59832468	-601.80596918	-365.65540321	26.182247541	211.20138009	28.998376062	-355.1149374	-599.61697996	-605.66981193	-570.25874408	-490.712358	-367.9028337	-203.18613726	1.6841225368	243.68544357	425.50095135	442.74751473	452.34658664	462.5805842	473.40899384	484.71409451	496.3730971	508.2588036	520.24164834	532.19108963	543.9769127	555.47074777	566.54705507	577.08561391	586.9709211	596.09580393	604.36097907	611.67537173	617.96016681	623.14679266	627.17804723	630.01096505	631.61396009	631.63763363	310.15327812	-49.314825692	60.689773064	437.23320098	454.34273341	417.68929478	351.55589231	256.26265789	132.34658699	-19.635043069	-198.72436789	-376.92078055	-412.56113518	-420.09620626	-427.90833325	-436.31699751	-445.28476686	-454.76695961	-464.71472189	-475.07783503	-485.80385732	-496.83811531	-508.12484669	-519.60667533	-531.2252504	-542.92190933	-554.63703401	-566.31147993	-577.88565015	-589.30086239	-600.49972774	-611.42469992	-622.02119305	-632.23417869	-642.01286247	-651.30765487	-660.07073177	-668.25835564	-675.82831342	-682.7425917	-688.96682106	-694.46755659	-699.21861184	-703.19511334	-706.37670697	-708.74789232	-710.29632608	-711.01386955	
