%eval_id  interface fy             E              b              cR1            cR2            a1             a3             stress_1       stress_2       stress_3       stress_4       stress_5       stress_6       stress_7       stress_8       stress_9       stress_10      stress_11      stress_12      stress_13      stress_14      stress_15      stress_16      stress_17      stress_18      stress_19      stress_20      stress_21      stress_22      stress_23      stress_24      stress_25      stress_26      stress_27      stress_28      stress_29      stress_30      stress_31      stress_32      stress_33      stress_34      stress_35      stress_36      stress_37      stress_38      stress_39      stress_40      stress_41      stress_42      stress_43      stress_44      stress_45      stress_46      stress_47      stress_48      stress_49      stress_50      stress_51      stress_52      stress_53      stress_54      stress_55      stress_56      stress_57      stress_58      stress_59      stress_60      stress_61      stress_62      stress_63      stress_64      stress_65      stress_66      stress_67      stress_68      stress_69      stress_70      stress_71      stress_72      stress_73      stress_74      stress_75      stress_76      stress_77      stress_78      stress_79      stress_80      stress_81      stress_82      stress_83      stress_84      stress_85      stress_86      stress_87      stress_88      stress_89      stress_90      stress_91      stress_92      stress_93      stress_94      stress_95      stress_96      stress_97      stress_98      stress_99      stress_100     stress_101     stress_102     stress_103     stress_104     stress_105     stress_106     stress_107     stress_108     stress_109     stress_110     stress_111     stress_112     stress_113     stress_114     stress_115     stress_116     stress_117     stress_118     stress_119     stress_120     stress_121     stress_122     stress_123     stress_124     stress_125     stress_126     stress_127     stress_128     stress_129     stress_130     stress_131     stress_132     stress_133     stress_134     stress_135     stress_136     stress_137     stress_138     stress_139     stress_140     stress_141     stress_142     stress_143     stress_144     stress_145     stress_146     stress_147     stress_148     stress_149     stress_150     stress_151     stress_152     stress_153     stress_154     stress_155     stress_156     stress_157     stress_158     stress_159     stress_160     stress_161     stress_162     stress_163     stress_164     stress_165     stress_166     stress_167     stress_168     stress_169     stress_170     stress_171     stress_172     stress_173     stress_174     stress_175     stress_176     stress_177     stress_178     stress_179     stress_180     stress_181     stress_182     stress_183     stress_184     stress_185     stress_186     stress_187     stress_188     stress_189     stress_190     stress_191     stress_192     stress_193     stress_194     stress_195     stress_196     stress_197     stress_198     stress_199     stress_200     stress_201     stress_202     stress_203     stress_204     stress_205     stress_206     stress_207     stress_208     stress_209     stress_210     stress_211     stress_212     stress_213     stress_214     stress_215     stress_216     stress_217     stress_218     stress_219     stress_220     stress_221     stress_222     stress_223     stress_224     stress_225     stress_226     stress_227     stress_228     stress_229     stress_230     stress_231     stress_232     stress_233     stress_234     stress_235     stress_236     stress_237     stress_238     stress_239     stress_240     stress_241     stress_242     stress_243     stress_244     stress_245     stress_246     stress_247     stress_248     stress_249     stress_250     stress_251     stress_252     stress_253     stress_254     stress_255     stress_256     stress_257     stress_258     stress_259     stress_260     stress_261     stress_262     stress_263     stress_264     stress_265     stress_266     stress_267     stress_268     stress_269     stress_270     stress_271     stress_272     stress_273     stress_274     stress_275     stress_276     stress_277     stress_278     stress_279     stress_280     stress_281     stress_282     stress_283     stress_284     stress_285     stress_286     stress_287     stress_288     stress_289     stress_290     stress_291     stress_292     stress_293     stress_294     stress_295     stress_296     stress_297     stress_298     stress_299     stress_300     stress_301     stress_302     stress_303     stress_304     stress_305     stress_306     stress_307     stress_308     stress_309     stress_310     stress_311     stress_312     stress_313     stress_314     stress_315     stress_316     stress_317     stress_318     stress_319     stress_320     stress_321     stress_322     stress_323     stress_324     stress_325     stress_326     stress_327     stress_328     stress_329     stress_330     stress_331     stress_332     stress_333     stress_334     stress_335     stress_336     stress_337     stress_338     stress_339     stress_340     stress_341     stress_342     
1        NO_ID     500            200000         0.5            1              1              0.25           0.25           2.330647243    22.14213834    -124.8897049   -211.5371663   -232.427444    -175.2943489   -13.9155432    21.45618346    31.54411962    21.78175693    -163.6998323   -402.8876041   -548.8745749   -620.1374903   -627.5102013   -619.8934047   -625.1405221   -635.7868989   -615.5125189   -403.981889    -114.9045236   72.62868689    207.9837049    273.8020139    278.7167261    270.7212409    274.9550668    289.4024433    292.5011048    290.6134401    247.0838845    68.41550265    -192.3588426   -413.813528    -632.2114328   -874.3352572   -1096.274572   -1293.33564    -1462.230537   -1597.989798   -1695.439951   -1751.579976   -1782.656544   -1774.871296   -1696.58668    -1686.327317   -1716.480614   -1726.579366   -1714.294696   -1719.091323   -1801.63885    -1809.627083   -1793.956633   -1625.455932   -1347.992163   -1141.947669   -1048.268044   -1035.593285   -1050.591651   -1175.488172   -1483.642478   -1706.369486   -1775.676011   -1780.682171   -1714.186554   -1639.061538   -1639.633913   -1709.691355   -1849.181668   -1882.795511   -1888.79951    -1886.312521   -1868.673361   -1778.613833   -1576.657234   -1314.820106   -1041.82406    -776.547338    -520.8982578   -278.0911733   -43.95781001   172.3572899    369.7815483    542.4998436    687.4024822    800.6399121    878.8369893    922.5252179    939.3433862    903.659425     828.3940791    834.7272508    899.6894659    916.241089     916.5590611    914.8865075    907.4273875    891.1494844    838.7951556    694.1344769    504.0415969    290.9899427    69.12613084    -156.5618695   -385.7733743   -615.9993525   -848.8937414   -1081.535263   -1314.237772   -1545.286999   -1772.623629   -1994.981039   -2211.51469    -2419.264791   -2615.268172   -2800.237977   -2969.792782   -3124.10173    -3261.393644   -3379.255997   -3477.843821   -3555.143785   -3610.644276   -3646.149177   -3665.063666   -3675.980578   -3685.796156   -3682.135056   -3559.480776   -3337.79374    -3107.586437   -2923.627378   -2813.096762   -2766.895484   -2776.113111   -2792.957307   -2794.259115   -2794.341336   -2788.551247   -2838.221218   -3055.581952   -3354.291033   -3570.830705   -3720.001519   -3801.93273    -3833.438228   -3843.250114   -3838.587809   -3709.595853   -3505.795678   -3357.237872   -3307.982312   -3306.815123   -3339.518697   -3504.402391   -3674.008654   -3751.217001   -3774.922887   -3782.214656   -3743.343115   -3733.563083   -3749.19362    -3800.913244   -3845.099583   -3850.420022   -3856.79046    -3860.749721   -3865.936276   -3864.603953   -3831.803914   -3742.508992   -3597.455456   -3415.379959   -3205.907445   -2980.711276   -2745.002301   -2500.574047   -2253.183142   -2001.581648   -1748.429158   -1494.37106    -1239.383599   -986.0993455   -735.9454631   -489.1014089   -247.6103363   -12.50422098   214.4084562    431.5730487    639.5427051    834.7679035    1017.090391    1185.947078    1339.263334    1476.847152    1597.353726    1700.263809    1785.471653    1851.671692    1898.949339    1928.067329    1947.491479    1939.482083    1920.4368      1903.560125    1951.352702    1961.720305    1962.125798    1963.053927    1963.652134    1964.125912    1910.325003    1781.594989    1605.986539    1400.062631    1173.38384     931.681973     681.1863477    423.9138725    163.7194948    -95.23642954   -353.6190486   -606.1013933   -850.9265669   -1085.575211   -1308.326351   -1515.715119   -1705.959588   -1879.15974    -2031.510525   -2161.700341   -2269.881387   -2354.194808   -2413.756996   -2449.478398   -2473.699313   -2487.558909   -2476.932537   -2462.85359    -2469.715958   -2489.767525   -2494.051911   -2481.938688   -2486.145353   -2533.527227   -2546.363257   -2560.741909   -2469.035795   -2238.512408   -2044.629847   -1956.386606   -1946.815622   -1955.816506   -2036.804497   -2256.92162    -2437.3064     -2504.558788   -2516.646518   -2497.893058   -2434.065021   -2426.72122    -2444.054127   -2565.127305   -2638.861374   -2646.728138   -2652.328315   -2655.843219   -2659.109961   -2642.343649   -2562.108095   -2405.760673   -2198.431223   -1959.946746   -1704.285325   -1440.801123   -1173.383863   -903.8265176   -635.4477884   -370.3420135   -108.6470648   145.2393369    390.7135954    624.7808753    846.5226291    1053.213061    1243.517546    1416.198352    1567.80179     1697.929843    1806.614509    1890.203116    1950.226763    1987.127515    2008.340527    2001.18134     1971.307093    1957.443573    2007.884097    2017.882517    2018.479689    2018.639791    2018.227316    2018.694331    2017.484466    1977.592699    1878.859713    1745.511428    1585.22907     1405.847068    1211.214895    1005.175517    787.5231527    563.6863816    332.8423089    96.24411797    -144.3004656   -387.4699863   -632.6649059   -878.4666646   -1124.715753   -1368.623364   -1610.484371   -1849.010809   -2083.428649   -2311.938347   -2535.04258    -2750.708037   -2958.942999   -3157.765822   -3345.982598   -3524.233121   -3690.650757   -3843.133467   -3983.27347    -4109.891463   -4221.561698   -4318.036173   -4398.829728   -4464.836343   -4513.946746   -4548.759648   -4568.341049   
2        NO_ID     499.7351734    199978.5356    0.4999450619   1.000008385    0.9998318165   0.2496803582   0.2500049715   2.330397113    22.16813397    -124.6432562   -211.251917    -232.1762644   -175.094265    -13.7678263    21.60255578    31.71630845    21.99803771    -163.4203754   -402.5389824   -548.4946261   -619.7546802   -627.161973    -619.5278301   -624.7506338   -635.4171775   -615.1806304   -403.7199466   -114.9163581   72.4773743     207.791117     273.5945785    278.5439494    270.5352335    274.7541371    289.1976787    292.3090404    290.4440114    246.947122     68.34840711    -192.1889589   -413.44343     -631.7676063   -873.8381206   -1095.727911   -1292.743701   -1461.599416   -1597.327296   -1694.755197   -1750.883044   -1781.961209   -1774.223394   -1696.013396   -1685.732738   -1715.847099   -1725.979486   -1713.684185   -1718.46422    -1800.985272   -1808.991351   -1793.371272   -1624.992502   -1347.691058   -1141.756981   -1048.118739   -1035.435058   -1050.399997   -1175.247759   -1483.28892    -1705.710499   -1774.937929   -1779.972808   -1713.551202   -1638.467295   -1639.011431   -1709.011646   -1848.364923   -1881.977523   -1887.991401   -1885.523382   -1867.918596   -1777.929251   -1576.102902   -1314.44223    -1041.615115   -776.4668643   -520.9097514   -278.172441    -44.09660599   172.1685597    369.5489363    542.229309     687.1004765    800.3135195    878.4938715    922.1734766    938.9993486    903.3903754    828.2113134    834.5144887    899.4326144    915.9825109    916.306746     914.6463445    907.2088731    890.9701868    838.6828555    694.1215522    504.1523412    291.2308496    69.48733899    -156.0977564   -385.2234173   -615.376683    -848.2072263   -1080.790491   -1313.438217   -1544.434955   -1771.720855   -1994.029173   -2210.51549    -2418.220283   -2614.180725   -2799.110331   -2968.628061   -3122.903417   -3260.165561   -3378.002277   -3476.568856   -3553.85219    -3609.340842   -3644.838812   -3663.751439   -3674.682434   -3684.559721   -3681.02672    -3558.537439   -3337.008831   -3106.928331   -2923.056755   -2812.573751   -2766.375292   -2775.550169   -2792.391879   -2793.722522   -2793.80101    -2787.99298    -2837.628189   -3054.902543   -3353.228075   -3569.478744   -3718.572232   -3800.478552   -3831.98625    -3841.841236   -3837.303992   -3708.488844   -3504.844937   -3356.379963   -3307.138199   -3305.948598   -3338.609782   -3503.353734   -3672.648262   -3749.7928     -3773.515084   -3780.921972   -3742.148003   -3732.350735   -3747.921533   -3799.461165   -3843.640151   -3848.965333   -3855.348039   -3859.332339   -3864.562243   -3863.294903   -3830.581149   -3741.389904   -3596.45138    -3414.495812   -3205.142688   -2980.061577   -2744.46116    -2500.134107   -2252.837082   -2001.322674   -1748.251225   -1494.268909   -1239.352679   -986.1356997   -736.0455891   -489.2621322   -247.8286925   -12.77735749   214.0833574    431.1988366    639.1223035    834.3043442    1016.586841    1185.406843    1338.68987     1476.244065    1596.724757    1699.612832    1784.802651    1850.988742    1898.256599    1927.369006    1946.792883    1938.889575    1920.024699    1903.136775    1950.882448    1961.247541    1961.662895    1962.619551    1963.272467    1963.828184    1910.131457    1781.519909    1606.03619     1400.236979    1173.678734    932.0910153    681.7022522    424.5292784    164.427375     -94.44261381   -352.7453558   -605.1534831   -849.9098154   -1084.494823   -1307.187462   -1514.522886   -1704.719239   -1877.876634   -2030.190163   -2160.348379   -2268.50364    -2352.797217   -2412.345616   -2448.059372   -2472.280965   -2486.222939   -2475.733531   -2461.631279   -2468.451442   -2488.572102   -2492.927578   -2480.776311   -2484.957504   -2532.291645   -2545.155927   -2559.640496   -2468.11422    -2237.770529   -2044.011113   -1955.815097   -1946.233192   -1955.193397   -2036.065198   -2255.986565   -2436.232697   -2503.450701   -2515.5845     -2496.970489   -2433.222037   -2425.855104   -2443.086207   -2563.991769   -2637.688384   -2645.559793   -2651.173296   -2654.716877   -2658.03527    -2641.348006   -2561.217401   -2404.993918   -2197.797993   -1959.447777   -1703.915008   -1440.550342   -1173.242256   -903.7839288   -635.49498     -370.4708837   -108.8505843   144.9673176    390.3785761    624.3879262    846.0765715    1052.718618    1242.979446    1415.621401    1567.190922    1697.290134    1805.951184    1889.521541    1949.532413    1986.425954    2007.638859    2000.58798     1970.888486    1957.011476    2007.405809    2017.402116    2018.005216    2018.181241    2017.799649    2018.315454    2017.172443    1977.363184    1878.724461    1745.477843    1585.300545    1406.023824    1211.494885    1005.555285    787.9985165    564.2529017    333.4956154    96.98008942    -143.4856216   -386.5797103   -631.7023104   -877.434578    -1123.616771   -1367.459912   -1609.258753   -1847.725264   -2082.085391   -2310.539603   -2533.590624   -2749.205211   -2957.391741   -3156.168667   -3344.342197   -3522.552248   -3688.932304   -3841.38045    -3981.489022   -4108.078824   -4219.724221   -4316.177296   -4396.952975   -4462.94531    -4512.045083   -4546.851049   -4566.429237   
3        NO_ID     498.9411031    199914.1274    0.499780206    1.000033458    0.9993290586   0.2487215064   0.2500197914   2.329646549    22.24613893    -123.9021608   -210.3960431   -231.4226228   -174.4939459   -13.32547442   22.04082135    32.2320415     22.64607724    -162.5825911   -401.4934295   -547.3550884   -618.6065587   -626.1176209   -618.4314273   -623.5811833   -634.3082422   -614.1852255   -402.9351695   -114.9538549   72.02323297    207.2133132    272.9722467    278.0256181    269.9772012    274.1513273    288.5833598    291.7328309    289.9357252    246.5369176    68.14829273    -191.6767289   -412.3328884   -630.4362984   -872.3469001   -1094.088118   -1290.968069   -1459.706236   -1595.339975   -1692.701115   -1748.792428   -1779.875386   -1772.28006    -1694.294501   -1683.949938   -1713.947468   -1724.180847   -1711.853647   -1716.583892   -1799.025412   -1807.085048   -1791.616355   -1623.603979   -1346.789353   -1141.186032   -1047.671725   -1034.961274   -1049.825908   -1174.527311   -1482.225745   -1703.72994    -1772.721866   -1777.842949   -1711.644033   -1636.683869   -1637.143269   -1706.971587   -1845.914813   -1879.523705   -1885.567223   -1883.156163   -1865.654756   -1775.87665    -1574.441835   -1313.310523   -1040.989468   -776.2259606   -520.9444221   -278.4163306   -44.5130713    171.6022729    368.8509824    541.4175686    686.1943096    799.3341828    877.4643536    921.1180859    937.9670779    902.5836766    827.6641326    833.8772977    898.6631098    915.207817     915.5508472    913.9269399    906.5545557    890.4338361    838.3479268    694.085034     504.486713     291.955206     70.57195667    -154.7049766   -383.5734804   -613.5088223   -846.1479322   -1078.556463   -1311.039847   -1541.879109   -1769.012801   -1991.173823   -2207.518127   -2415.086983   -2610.918595   -2795.727597   -2965.134095   -3119.30867    -3256.4815     -3374.241302   -3472.744143   -3549.977585   -3605.430715   -3640.907894   -3659.814934   -3670.788266   -3680.851133   -3677.70288    -3555.708589   -3334.654938   -3104.954487   -2921.34511    -2811.004815   -2764.814801   -2773.861399   -2790.695647   -2792.112913   -2792.180202   -2786.318334   -2835.849182   -3052.861948   -3350.032299   -3565.421741   -3714.284589   -3796.116415   -3827.630716   -3837.615357   -3833.454039   -3705.169586   -3501.994287   -3353.807581   -3304.607163   -3303.350314   -3335.884252   -3500.20536    -3668.565966   -3745.520293   -3769.291873   -3777.044964   -3738.564066   -3728.715081   -3744.105987   -3795.105377   -3839.262331   -3844.601759   -3851.021363   -3855.081001   -3860.441286   -3859.369252   -3826.914613   -3738.034487   -3593.44089    -3411.844841   -3202.849532   -2978.11321    -2742.838111   -2498.81436    -2251.798741   -2000.545424   -1747.71699    -1493.961958   -1239.259399   -986.2442471   -736.3454767   -489.7438501   -248.483355    -13.59641151   213.1083649    430.0764529    637.8613021    832.9138233    1015.076307    1183.786217    1336.969521    1474.434817    1594.837836    1697.659865    1782.79559     1848.939825    1896.178301    1925.273955    1944.697012    1937.112792    1918.789536    1901.867856    1949.472786    1959.830347    1960.275356    1961.317828    1962.135182    1962.936935    1909.55277     1781.296412    1606.186506    1400.760927    1174.563844    933.3181353    683.2495879    426.3748195    166.5501099    -92.06224029   -350.1254686   -602.3110204   -846.8608752   -1081.254995   -1303.772143   -1510.94753    -1700.999524   -1874.028636   -2026.230382   -2156.293781   -2264.371672   -2348.605707   -2408.112732   -2443.803544   -2468.027174   -2482.217077   -2472.139349   -2457.967162   -2464.660538   -2484.989066   -2489.558243   -2477.292763   -2481.397349   -2528.587815   -2541.537059   -2556.340088   -2465.353619   -2235.548642   -2042.158185   -1954.103631   -1944.488953   -1953.326882   -2033.848709   -2253.181668   -2433.011876   -2500.126794   -2512.399144   -2494.204273   -2430.694761   -2423.258388   -2440.183061   -2560.585274   -2634.169598   -2642.054958   -2647.708535   -2651.338396   -2654.812135   -2638.362425   -2558.546939   -2402.695304   -2195.899758   -1957.95198    -1702.804774   -1439.798348   -1172.817482   -903.655992    -635.636243    -370.8571042   -109.4607233   144.151675     389.3739072    623.2094281    844.7387015    1051.235546    1241.365354    1413.89071     1565.358442    1695.371097    1803.961273    1887.476857    1947.44939     1984.321289    2005.533875    1998.808752    1969.633926    1955.716436    2005.972163    2015.962131    2016.583053    2016.806985    2016.518271    2017.180699    2016.238433    1976.676752    1878.320714    1745.378858    1585.516402    1406.555129    1212.335486    1006.694831    789.4244983    565.9520505    335.4548737    99.1871432     -141.0421029   -383.9100079   -628.8157277   -874.3395717   -1120.321107   -1363.970846   -1605.583185   -1843.869899   -2078.056867   -2306.344591   -2529.235948   -2744.697891   -2952.739088   -3151.378293   -3339.422053   -3517.510657   -3683.777944   -3836.122372   -3976.136625   -4102.641832   -4214.212693   -4310.601551   -4391.323589   -4457.273074   -4506.340949   -4541.126101   -4560.694649   
4        NO_ID     495.7709658    199656.27      0.4991201546   1.000132543    0.9973449595   0.24488721     0.2500776365   2.326641676    22.55843088    -120.9127664   -206.9711313   -228.4069971   -172.0921452   -11.56920309   23.77991906    34.28127938    25.22500252    -159.2410226   -397.3159125   -542.8015736   -614.0187048   -621.9452079   -614.0506297   -618.9065778   -629.8759081   -610.2074997   -399.8120772   -115.1332775   70.20367951    204.9015067    270.482536     275.9522806    267.7449209    271.7397791    286.1257077    289.4277497    287.9025851    244.897394     67.36578811    -189.589562    -407.8871734   -625.1136586   -866.3848735   -1087.531761   -1283.868323   -1452.136272   -1587.393417   -1684.4875     -1740.432661   -1771.534809   -1764.512325   -1687.433294   -1676.832893   -1706.362677   -1717.001399   -1704.546491   -1709.077405   -1791.199098   -1799.473284   -1784.614263   -1618.076343   -1343.206495   -1138.918812   -1045.897078   -1033.079452   -1047.542513   -1171.657174   -1477.933897   -1695.755041   -1763.831332   -1769.297973   -1703.99976    -1629.54083    -1629.660989   -1698.798429   -1836.116418   -1869.710717   -1875.872922   -1873.690429   -1856.606446   -1767.683703   -1567.826648   -1308.812347   -1038.504466   -775.2699943   -521.0858977   -279.3931584   -46.18006976   169.3357031    366.0574079    538.1685704    682.5674017    795.414458     873.3438197    916.8940203    933.8356341    899.3637319    825.4922149    831.3450252    895.6008858    912.1246925    912.5429985    911.0656414    903.9557539    888.3116602    837.0378208    693.9726929    505.8560318    294.8768587    74.92505527    -149.1274427   -376.9728785   -606.0396932   -837.9145944   -1069.624751   -1301.450827   -1531.66002    -1758.184637   -1979.756222   -2195.532236   -2402.557149   -2597.873277   -2782.19973    -2951.161193   -3104.932561   -3241.748068   -3359.200165   -3457.448016   -3534.481861   -3589.792891   -3625.186894   -3644.071584   -3655.215579   -3666.027549   -3664.424963   -3544.410396   -3325.251585   -3097.065972   -2914.501634   -2804.730234   -2758.573894   -2767.106885   -2783.911237   -2785.67677    -2785.69922    -2779.621814   -2828.734015   -3044.662345   -3337.147124   -3549.177713   -3697.137425   -3778.673886   -3810.214678   -3820.723308   -3818.076704   -3691.918902   -3490.614989   -3343.537876   -3294.50226    -3292.97618    -3324.999944   -3487.574453   -3652.22055    -3728.431902   -3752.402219   -3761.552769   -3724.249398   -3714.193362   -3728.854268   -3777.68901    -3821.758235   -3827.154904   -3833.723528   -3838.087861   -3843.974646   -3843.689099   -3812.274761   -3724.6403     -3581.424687   -3401.262661   -3193.693229   -2970.330338   -2736.351186   -2493.536155   -2247.642674   -1997.431224   -1745.573227   -1492.726438   -1238.878225   -986.6704635   -737.5374306   -491.6636985   -251.0956757   -16.8670545    209.2131902    425.5909454    632.8205852    827.354334     1009.036124    1177.30508     1330.088975    1467.198221    1587.290155    1689.84767     1774.766755    1840.743362    1887.864178    1916.892736    1936.312507    1930.016958    1913.865907    1896.809086    1943.850554    1954.177958    1954.742717    1956.131985    1957.611677    1959.400774    1907.26696     1780.428133    1606.807784    1402.869789    1178.110263    938.2260867    689.4328622    433.7464611    175.0271131    -82.55718386   -339.6641035   -590.9605022   -834.6851394   -1068.316064   -1290.13136    -1496.666549   -1686.14096    -1858.656732   -2010.411114   -2140.09502    -2247.863231   -2331.858929   -2391.200338   -2426.799305   -2451.031097   -2466.224723   -2457.805379   -2443.35313    -2449.536727   -2470.705564   -2476.135951   -2463.412371   -2467.20762    -2513.816184   -2527.108425   -2543.195805   -2454.372711   -2226.716837   -2034.795048   -1947.303181   -1937.557268   -1945.902393   -2025.003094   -2241.96563    -2420.132631   -2486.836286   -2499.668041   -2483.161582   -2420.610508   -2412.895668   -2428.579222   -2546.960799   -2620.097145   -2628.038513   -2633.853822   -2637.832587   -2641.933594   -2626.440201   -2547.889134   -2393.525282   -2188.328237   -1951.985021   -1698.374156   -1436.795198   -1171.118749   -903.141363    -636.1963137   -372.3958525   -111.8947106   140.8956025    385.3613268    618.5009309    839.392018     1045.307324    1234.912345    1406.970648    1558.030632    1687.696559    1796.00282     1879.298992    1939.117944    1975.903151    1997.114458    1991.704862    1964.634544    1950.554994    2000.255813    2010.220398    2010.913199    2011.330852    2011.41708     2012.669702    2012.533097    1973.962428    1876.735529    1745.009064    1586.400848    1408.695444    1215.706888    1011.256198    795.1263692    572.7420856    343.2816237    108.0021083    -131.2835555   -373.2483999   -617.287763    -861.9786564   -1107.157966   -1350.034235   -1590.900498   -1828.467805   -2061.9618     -2289.583166   -2511.8354     -2726.686281   -2934.145649   -3132.233467   -3319.757664   -3497.360014   -3663.175787   -3815.104939   -3954.741546   -4080.90804    -4192.180468   -4288.312206   -4368.819473   -4434.597389   -4483.537547   -4518.239364   -4537.769312   
5        NO_ID     483.1889155    198621.1801    0.4964697306   1.000509398    0.989842174    0.2295682085   0.2502849362   2.314579527    23.81203222    -108.6293083   -193.2750354   -216.3538554   -162.5053949   -5.763347961   29.47070506    41.21702879    34.28701519    -146.7067925   -380.6856259   -524.6620589   -595.7417241   -605.3359142   -596.6048394   -600.2579829   -612.1998386   -594.358085    -387.5930026   -116.2931645   62.88146607    195.645203     260.5176208    267.6589439    258.8135567    262.0887679    276.2891887    280.2036797    279.7703644    238.3632273    64.54636367    -180.657461    -390.0573744   -603.8658947   -842.5831551   -1061.351925   -1255.514286   -1421.900825   -1555.651142   -1651.676653   -1707.037012   -1738.216193   -1733.533951   -1660.222602   -1648.595214   -1676.247197   -1688.530451   -1675.562899   -1679.293655   -1760.103248   -1769.241017   -1756.888823   -1596.385027   -1329.24598    -1130.103661   -1039.00312    -1025.755271   -1038.606338   -1160.348365   -1460.041724   -1663.09346    -1727.905255   -1734.766975   -1673.238095   -1600.88432    -1599.642701   -1665.958441   -1796.963708   -1830.502785   -1837.141743   -1835.886339   -1820.538495   -1735.206349   -1541.835838   -1291.267793   -1028.833669   -771.561299    -521.6928258   -283.318603    -52.8646708    160.2479309    354.8559876    525.1407756    668.0245178    779.6979525    856.8226248    899.9579994    917.2725276    886.5996964    817.076652     821.4829276    883.6072361    900.0448718    900.7658929    899.8845447    893.8604452    880.1995495    832.2722331    694.0551095    511.8258828    306.9314374    92.55449819    -126.7270813   -350.5653354   -576.2062452   -805.0473364   -1033.972259   -1263.169675   -1490.855659   -1714.939794   -1934.149323   -2147.648241   -2352.49398    -2545.745338   -2728.139277   -2895.318728   -3047.475773   -3182.86081    -3299.081161   -3396.308353   -3472.543297   -3527.285579   -3562.34668    -3581.141917   -3592.990622   -3606.907289   -3611.586531   -3499.478819   -3287.816091   -3065.603723   -2887.159921   -2779.633565   -2733.610171   -2740.080497   -2756.764396   -2759.951739   -2759.794196   -2752.851551   -2800.265152   -3011.157222   -3284.074553   -3483.99083    -3628.61179    -3709.003782   -3740.651842   -3753.344656   -3756.927076   -3639.325921   -3445.45204    -3302.755603   -3254.369606   -3251.76278    -3281.722937   -3436.373083   -3586.61439    -3660.114402   -3684.905909   -3699.846764   -3667.330482   -3656.443307   -3667.992543   -3708.133646   -3751.857922   -3757.488006   -3764.676705   -3770.314282   -3778.385869   -3781.326782   -3754.128929   -3671.489464   -3533.752803   -3359.258818   -3157.3057     -2939.345457   -2710.466276   -2472.415889   -2230.956618   -1984.873836   -1736.872485   -1487.644825   -1237.208939   -988.2322036   -742.1682115   -499.2152441   -261.4282066   -29.8449825    193.7246769    407.7287682    612.7256989    805.1731754    984.9218478    1151.417587    1302.595425    1438.273072    1557.114302    1658.608421    1742.656628    1807.959419    1854.60729     1883.366161    1902.772725    1901.826191    1894.440023    1876.840721    1921.620328    1931.826654    1932.889165    1935.721987    1939.920943    1945.704001    1898.566035    1777.340171    1609.583921    1411.48464     1192.362858    957.8224276    714.0437386    463.0412248    208.6900546    -44.82105251   -298.1299993   -545.8877333   -786.3223252   -1016.906027   -1235.915712   -1439.889359   -1627.051061   -1797.5102     -1947.471507   -2075.633872   -2182.160154   -2265.199874   -2323.87691    -2359.107414   -2383.372084   -2402.775785   -2401.164956   -2385.587126   -2389.686999   -2414.359772   -2423.331876   -2408.754377   -2411.26244    -2455.423712   -2470.139985   -2491.527697   -2411.409527   -2192.249295   -2006.085936   -1920.79437    -1910.521169   -1916.829934   -1989.895965   -2197.12874    -2368.665825   -2433.744412   -2448.899761   -2439.331202   -2380.651996   -2371.811018   -2382.277279   -2492.478101   -2563.844418   -2572.01336    -2578.499826   -2583.936153   -2590.63972    -2579.065051   -2505.628078   -2357.215039   -2158.359534   -1928.350086   -1680.790824   -1424.835642   -1164.307479   -901.016406    -638.3379606   -378.4347554   -121.5082691   127.9921351    369.4250992    599.7712338    818.0982363    1021.675606    1209.169997    1379.349418    1528.76888     1657.039694    1764.203562    1846.616883    1905.817877    1942.254266    1963.460426    1963.510164    1944.936072    1930.205982    1977.679257    1987.541904    1988.532102    1989.758635    1991.398449    1995.067709    1998.191193    1963.589678    1870.848322    1743.921073    1590.245738    1417.468668    1229.307582    1029.525058    817.8750745    599.7729958    374.4012475    143.0282862    -92.51859152   -330.8973433   -571.4894799   -812.8602144   -1054.836976   -1294.621542   -1532.502457   -1767.18866    -1997.905513   -2222.854959   -2442.543412   -2654.942291   -2860.066403   -3055.940762   -3241.37899    -3417.028931   -3581.031682   -3731.293261   -3869.413371   -3994.219699   -4104.29371    -4199.392939   -4279.037762   -4344.126725   -4392.554023   -4426.921203   -4446.296153   
6        NO_ID     456.7950234    196385.4306    0.4907402902   1.001209161    0.9761550649   0.1968889741   0.250582548    2.288525809    26.51975868    -81.44543536   -164.2365338   -190.864064    -142.359065    1.778355129    36.64756491    51.08295555    48.745633      -122.2815648   -345.5031053   -486.2443949   -557.0294983   -570.2260995   -559.6882284   -560.5936388   -574.6361102   -560.7557054   -363.1582438   -120.7786206   47.0188029     175.7916323    239.1598893    249.9136461    239.6901472    241.4107862    255.2081176    260.4454742    262.3729098    224.5648691    60.49738101    -158.8214655   -351.7653275   -558.6427563   -791.9060782   -1005.578955   -1195.083364   -1357.439538   -1487.961859   -1581.698145   -1635.805644   -1667.151221   -1667.778164   -1603.295222   -1589.449585   -1613.044328   -1628.988375   -1614.913531   -1616.915983   -1694.60524    -1705.624334   -1699.030282   -1552.090922   -1301.150404   -1112.420919   -1025.193701   -1011.01659    -1020.385699   -1136.805547   -1416.708695   -1590.123418   -1649.698205   -1659.630569   -1607.158025   -1539.835976   -1535.652976   -1595.514052   -1713.473541   -1746.905101   -1754.576488   -1755.390837   -1744.169962   -1667.450112   -1488.746582   -1255.956681   -1009.409505   -764.1407947   -523.1575086   -291.7824919   -67.23353108   140.705155     330.7558991    497.1037242    636.7237719    745.8707651    821.2640582    863.5071567    881.635492     859.9869982    800.5526512    801.8344745    859.3233285    875.5574747    876.9363097    877.3922957    873.9020957    864.8969387    824.5958228    696.9374069    526.9930472    334.427867     131.2145391    -78.47577053   -294.1449016   -512.6809663   -735.1351213   -958.1339671   -1181.703122   -1403.969424   -1622.804862   -1836.93306    -2045.534532   -2245.695397   -2434.509871   -2612.752923   -2776.106203   -2924.798225   -3057.113659   -3170.691392   -3265.729185   -3340.250627   -3393.773146   -3428.120333   -3446.723739   -3460.21229    -3481.340755   -3499.884118   -3404.525045   -3208.414316   -2998.519647   -2828.581311   -2725.701175   -2679.953281   -2681.955877   -2698.374277   -2704.763592   -2704.217272   -2695.405253   -2738.948899   -2934.095089   -3163.805226   -3343.847069   -3482.397922   -3560.488219   -3592.374419   -3610.241639   -3627.969019   -3528.787531   -3350.432945   -3216.778143   -3169.728841   -3164.787623   -3190.126582   -3322.363999   -3445.432681   -3514.222134   -3540.930761   -3569.294178   -3547.336686   -3534.654283   -3538.108006   -3559.895496   -3602.908707   -3609.06694    -3617.725859   -3626.389894   -3639.540577   -3649.759473   -3631.795531   -3559.823585   -3433.567263   -3270.800122   -3080.388091   -2873.50968    -2655.112875   -2426.902196   -2194.658565   -1957.216867   -1717.343685   -1475.792662   -1232.635175   -990.5819913   -751.1185952   -514.4649797   -282.6882568   -56.83071619   161.2996387    370.1578206    570.3126615    758.2348592    933.7903095    1096.439878    1244.134504    1376.707725    1492.837203    1592.026018    1674.18652     1738.028919    1783.651838    1811.826285    1831.20423     1842.687577    1854.2483      1835.477262    1875.371289    1885.315964    1887.553095    1893.769276    1904.107176    1918.584743    1882.014357    1772.425747    1616.680807    1430.474092    1222.828561    999.1974937    765.7083884    524.3770226    279.1044057    34.11241329    -211.2072571   -451.4837914   -684.9332988   -909.0248529   -1122.04028    -1320.528836   -1502.729549   -1668.770968   -1814.876636   -1939.764639   -2043.616701   -2124.597058   -2181.842488   -2216.278883   -2240.615477   -2270.098972   -2283.817601   -2265.79903    -2265.161479   -2298.102534   -2315.086702   -2296.40013    -2295.835519   -2334.059005   -2352.122864   -2385.640588   -2324.234561   -2122.619319   -1948.146544   -1867.29949    -1855.883129   -1857.392159   -1915.559666   -2100.967432   -2258.632563   -2320.373221   -2340.996449   -2347.17579    -2296.920798   -2285.587534   -2283.462959   -2375.877926   -2443.608652   -2452.287686   -2460.357396   -2469.260645   -2482.017433   -2479.264824   -2416.98128    -2281.215581   -2095.596344   -1878.671231   -1643.56875    -1399.208517   -1149.349607   -895.8392185   -642.1341292   -390.4879703   -141.1841215   101.26345      336.1678145    560.4818163    773.2597125    971.7696621    1154.684701    1320.785006    1466.641518    1591.881774    1696.563839    1777.059152    1834.917628    1870.596216    1891.791194    1904.520677    1904.334916    1888.199689    1930.861384    1940.503541    1942.189416    1945.332671    1950.565444    1959.653287    1969.878509    1943.718238    1860.342124    1743.305506    1599.713842    1436.970939    1258.632303    1068.366386    865.8835597    656.5877642    439.6716048    216.4244974    -11.30133236   -242.1386163   -475.4465233   -709.7719253   -944.9282819   -1178.108393   -1409.595906   -1638.099207   -1862.846357   -2082.044687   -2296.209062   -2503.320459   -2703.405744   -2894.501873   -3075.435542   -3246.8683     -3406.954259   -3553.612842   -3688.456124   -3810.323287   -3917.807595   -4010.675616   -4088.456732   -4152.056902   -4199.375946   -4233.020004   -4252.060015   
7        NO_ID     330.024757     181761.4138    0.4530557069   1.002266745    0.9603309698   1e-06          0.2507573956   2.118108675    44.23290513    64.44493372    -12.65943829   -62.49926229   -61.15770231   -51.93897405   -18.22747411   13.79708728    42.92454001    25.28884025    -151.4240279   -272.0245102   -340.9634512   -377.8371272   -355.4810162   -330.5833004   -358.3706625   -373.2940975   -277.6629253   -161.8100426   -38.81387268   66.9837713     121.1037008    156.1450137    136.9072986    128.4541186    139.5314223    153.4271367    171.5806577    170.5708616    105.3868823    1.245855143    -131.6318004   -300.2479944   -499.3173749   -680.8339329   -841.0271029   -978.0627302   -1088.319916   -1167.688979   -1213.934472   -1246.370581   -1288.97776    -1288.071518   -1259.716339   -1249.104799   -1292.162662   -1270.845041   -1261.231571   -1243.419973   -1267.939931   -1311.861726   -1262.83473    -1105.186273   -973.2415613   -907.6092089   -887.3537706   -873.5002135   -921.5343696   -1032.894286   -1128.58296    -1174.502428   -1207.971258   -1235.13891    -1204.035797   -1180.611407   -1171.138074   -1221.292939   -1254.173404   -1268.883821   -1286.760467   -1313.272268   -1302.931101   -1210.344332   -1063.337917   -889.4690759   -702.8311203   -510.3330846   -320.8395789   -133.5562694   40.95422574    201.3366854    342.0374499    460.4331106    553.1856351    617.3639299    653.8339563    677.8524714    731.5780239    738.0807884    718.9255485    724.2352667    735.1613419    741.0974533    752.1955541    769.7903329    795.996197     804.807167     735.4619239    626.5260819    492.5256876    343.0136813    181.943608     10.66497894    -166.611437    -350.0071621   -535.5047486   -722.7551961   -909.7214703   -1094.265304   -1275.207416   -1451.889137   -1621.598513   -1781.65512    -1933.066026   -2071.745482   -2198.138963   -2310.735046   -2407.360824   -2488.370152   -2551.922141   -2597.641016   -2627.422681   -2644.799558   -2671.324434   -2740.642127   -2835.020172   -2822.063709   -2700.334532   -2550.112704   -2422.427129   -2343.117941   -2298.77985    -2265.546937   -2278.723927   -2307.758261   -2304.668203   -2282.367537   -2257.612331   -2273.803749   -2370.289294   -2497.602344   -2609.28206    -2674.697646   -2708.422184   -2766.626192   -2870.064189   -2865.449986   -2761.928233   -2671.373471   -2630.703788   -2610.3756     -2576.515436   -2537.619873   -2590.225743   -2641.518817   -2684.238142   -2801.951728   -2837.883285   -2813.453055   -2716.363006   -2675.877757   -2714.847324   -2725.296835   -2746.281815   -2777.782716   -2824.543919   -2877.570497   -2909.139003   -2890.83565    -2820.187969   -2713.35959    -2578.160608   -2425.184861   -2259.112177   -2081.577384   -1898.405056   -1708.514115   -1514.762698   -1317.981354   -1118.286452   -918.4048406   -719.8043982   -522.6611427   -328.9725976   -139.691816    43.47651587    219.1037851    387.8804005    546.4018771    694.6630807    832.2440871    957.2147647    1069.522421    1167.942336    1252.072027    1321.89939     1376.1996      1415.125197    1439.480772    1458.671707    1548.951901    1653.20743     1626.772076    1634.585825    1642.677906    1654.09778     1682.829146    1728.078125    1786.787666    1800.38687     1744.145699    1642.969177    1511.317659    1357.496154    1186.559111    1004.422925    812.9784029    616.0268274    417.688273     217.2309216    19.87779297    -172.76085     -358.3451898   -535.3632009   -700.5779948   -852.4379912   -991.2842816   -1113.531706   -1218.076003   -1305.261292   -1373.377231   -1421.665287   -1451.12813    -1475.994435   -1580.084921   -1678.135554   -1643.342155   -1600.966361   -1693.507778   -1756.341272   -1703.524442   -1671.156548   -1656.820405   -1701.47505    -1810.925935   -1845.151439   -1725.851608   -1605.305247   -1545.039558   -1525.564896   -1478.326786   -1418.181005   -1489.895167   -1585.893971   -1632.935621   -1697.065487   -1800.709569   -1795.675924   -1764.428575   -1662.011221   -1666.366921   -1718.064117   -1730.827198   -1752.437997   -1788.205226   -1841.69635    -1891.169823   -1888.789088   -1816.789586   -1695.816975   -1542.425641   -1368.645852   -1182.916365   -988.8747461   -788.4326755   -585.1678149   -381.4459418   -177.620682    21.77728224    216.0963639    402.3709792    579.7694696    745.702667     898.9969348    1038.592776    1161.222794    1266.660922    1355.099845    1423.027884    1472.083383    1502.79089     1523.912507    1616.67798     1706.495185    1681.168968    1689.901415    1696.572122    1703.800135    1720.6863      1748.338476    1787.549795    1833.9923      1848.402274    1808.438075    1736.469562    1638.734733    1522.0652      1389.650232    1244.946912    1087.557527    922.8310234    749.9417179    570.1725339    385.3676885    196.8809059    5.326663069    -187.8814236   -382.6084962   -576.1138004   -768.7570127   -959.334695    -1147.169911   -1330.569882   -1510.158062   -1684.022005   -1852.303184   -2013.14588    -2165.485773   -2310.092725   -2445.220954   -2568.889233   -2682.799744   -2785.873974   -2876.787633   -2955.370572   -3021.214056   -3075.274725   -3115.490774   -3144.49942    -3161.392174   
8        NO_ID     300            154942.0337    0.3611850094   0.9898244616   1.30104285     1e-06          0.202605505    1.805576083    76.71250715    144.4147164    77.28930549    -15.11958605   -71.87692601   -99.08223149   -65.79003618   -1.508242418   81.70729808    115.149031     -3.37842625    -86.06914533   -151.5333075   -231.5115019   -187.4816067   -137.7663689   -190.7474566   -250.5913662   -200.9495788   -155.0641644   -91.84761166   -27.14933118   9.778491643    87.52714559    51.75801556    24.64032461    30.55904692    60.31806699    106.0489834    135.3560887    105.6751718    63.27205119    -3.055375498   -105.8214499   -240.5755123   -361.0768026   -465.7422152   -554.9037368   -626.8946793   -679.1550087   -710.5720601   -745.0017355   -827.4610671   -848.8588178   -793.8942031   -741.493425    -818.3984676   -783.798119    -753.7588106   -737.7195147   -782.8260712   -855.7859574   -841.4667797   -739.3462885   -657.6040997   -615.0902474   -583.6876896   -528.4889888   -539.5941997   -614.313955    -665.0139645   -695.8087529   -760.4200171   -820.1175568   -800.9503614   -742.2438689   -696.5267646   -718.2388778   -750.2786527   -776.9995862   -813.3657104   -858.0081308   -868.3130426   -812.0895102   -720.375001    -613.3039398   -497.9262842   -377.2002187   -257.7792478   -137.2989547   -24.94535967   79.22943366    170.8861978    248.5122919    309.707502     352.2789558    377.622725     410.4757497    491.3523526    512.7237978    456.0886144    424.3987351    436.0708745    449.4628386    471.8021137    501.0440739    538.5332788    562.3307293    517.4391769    445.0898026    358.5821907    264.5907286    164.3805473    57.34002004    -53.63159601   -169.5655423   -287.1383113   -406.5916989   -526.4335947   -645.0568318   -761.8146162   -876.5697615   -987.1249353   -1091.304764   -1190.599927   -1281.388068   -1364.535133   -1438.917946   -1502.718079   -1556.580716   -1598.917046   -1629.549334   -1650.50698    -1665.51358    -1699.030678   -1770.805491   -1871.019739   -1882.071075   -1800.660376   -1695.799671   -1607.031782   -1551.779603   -1508.932054   -1428.195416   -1439.737236   -1485.276068   -1477.523113   -1434.053862   -1406.600385   -1440.135031   -1490.051043   -1562.930311   -1632.645467   -1676.126636   -1712.067014   -1778.336549   -1887.501097   -1906.624204   -1838.069662   -1774.318943   -1738.029914   -1689.817178   -1633.092546   -1624.902786   -1639.134047   -1666.083793   -1717.213336   -1841.466083   -1886.592277   -1840.632317   -1750.111244   -1682.511055   -1714.270521   -1728.711564   -1753.72293    -1787.335647   -1835.272333   -1891.442216   -1931.293505   -1928.661987   -1882.05077    -1807.553454   -1712.262784   -1605.777363   -1491.718153   -1370.711087   -1247.672131   -1120.706018   -991.9474491   -861.5798476   -729.1243068   -596.7614159   -465.4440486   -334.8646173   -206.5585349   -81.03790555   40.41177615    156.7653749    269.0937785    374.351878     472.8791064    564.5637248    647.767669     722.7078755    788.3885301    844.6208553    891.5634958    928.1358029    954.6078282    971.8583179    990.7012441    1071.300945    1173.334048    1132.842898    1081.802116    1086.492985    1101.092132    1129.069318    1171.511086    1230.048296    1250.409883    1210.330661    1135.363878    1039.40527     929.5761136    809.5156003    683.7130546    552.7080563    419.0509884    285.7170084    150.9195781    18.90852057    -109.6113418   -233.1385431   -350.941648    -460.5069979   -560.9390171   -653.1893182   -734.2036504   -803.3476692   -861.3766018   -906.8981062   -939.4096469   -960.0974224   -985.7263965   -1088.516407   -1180.16155    -1117.107437   -1031.12027    -1131.671923   -1194.402056   -1102.599828   -1054.409743   -1011.645455   -1066.472841   -1179.479027   -1231.311135   -1146.516045   -1059.014917   -1013.559997   -981.0992035   -913.2275655   -849.9931255   -893.2190954   -955.2655668   -991.7135748   -1069.135391   -1182.383157   -1187.659809   -1133.035968   -1022.893831   -1000.101755   -1041.567478   -1058.608232   -1085.5641     -1124.689374   -1180.817015   -1236.358927   -1247.674492   -1199.408017   -1112.619694   -1002.915291   -880.7657185   -752.9203486   -621.4205706   -486.7633062   -351.2838433   -216.2543656   -81.05285507   50.67405375    179.0851587    301.9658836    419.1764602    528.7743353    630.1739824    722.8532929    804.03339      873.9075036    933.0316924    978.1966267    1011.266691    1032.932911    1053.921025    1137.628184    1224.326847    1182.145026    1131.132155    1133.993733    1144.070314    1161.799263    1187.966818    1225.077666    1271.335953    1289.823899    1259.840186    1204.599192    1130.521811    1044.18249     948.2524378    845.5521251    735.0166849    621.3335961    503.055267     380.8842868    256.124058     129.6277218    1.539916619    -127.1679893   -256.7781253   -384.9502501   -512.4244916   -638.3665585   -762.4526532   -883.3273758   -1001.945804   -1116.705484   -1228.056457   -1334.425055   -1435.020177   -1530.87357    -1620.477596   -1702.080108   -1777.58875    -1846.110224   -1906.500516   -1958.729833   -2002.523013   -2038.945796   -2066.019249   -2086.446704   -2099.363258   
9        NO_ID     300            118926.7029    0.1343359391   0.9663916927   2              1e-06          0.0829151998   1.385880897    120.3302282    214.4595458    162.4354225    12.86094581    -123.1882696   -139.2399415   -106.2383635   1.361179682    158.1416534    205.3348313    169.8553134    144.577865     84.3786949     -53.60937212   19.52591304    103.3227762    16.50350498    -105.7859601   -93.31593051   -115.6868045   -139.3018535   -135.991901    -124.8993581   10.90200127    -47.06691027   -99.28260337   -100.770669    -49.70203213   33.87799085    109.9020859    98.38792439    118.3506515    146.3212725    140.4933897    101.8996085    73.24248689    52.41281919    35.63476791    21.54228386    10.31398316    1.345574756    -35.76422098   -182.7635864   -239.0933958   -148.3953782   -31.55609015   -158.9270982   -106.4895807   -48.61405233   -20.1816892    -94.62017829   -220.3686701   -246.3078898   -219.8611959   -215.6182422   -208.2519662   -161.880072    -50.6197372    7.97980777     -26.91841351   -11.16487333   -19.38289271   -130.1234305   -245.3320615   -238.0160164   -131.9273083   -15.65931072   -6.747991412   -37.53592845   -80.77364246   -146.4395702   -225.5082618   -262.7852807   -246.3132227   -236.2922991   -230.8499937   -219.9767493   -202.5890979   -183.8599067   -159.8184233   -137.7442843   -115.6659509   -95.96923932   -78.37084042   -63.75680062   -53.13307231   -44.25672548   1.319291067    142.8123812    183.6698163    76.70333094    -23.20446811   -12.39761362   11.40433899    52.00303003    104.5794726    165.0979262    210.3499188    198.887001     186.2490021    180.1152082    175.728214     168.6307317    156.444391     141.6068233    122.8091763    102.9810248    81.33427683    58.69700814    35.92823747    12.86926328    -11.15909681   -34.77669647   -56.6134884    -78.93157574   -98.84563018   -117.8896367   -135.5548877   -150.5816546   -164.07453     -174.8405281   -183.0123877   -190.8291574   -202.3054111   -252.547059    -353.6746138   -478.7762695   -535.026988    -533.4718595   -517.9734994   -502.9540165   -491.8832901   -451.7400359   -299.5712249   -307.0677931   -381.3058021   -367.2901064   -293.7340949   -214.0220726   -233.1419983   -210.2527042   -197.8283944   -203.4934785   -213.6704065   -253.120982    -352.7455545   -491.5928058   -553.1269314   -551.1181077   -539.6124071   -511.8193569   -426.0030524   -300.7204043   -277.0402027   -249.577253    -239.2305149   -310.1823185   -476.0085411   -539.5808227   -464.7018509   -310.5479177   -228.0918166   -249.0425152   -270.58807     -308.395473    -357.4659843   -420.0403532   -489.2188798   -545.1157238   -570.0403222   -568.643404    -557.1184166   -538.6408968   -518.3925649   -496.6699717   -471.9561834   -447.841372    -421.5503211   -394.5679484   -366.5319794   -336.4423713   -305.9680663   -275.5356352   -244.3049262   -213.2669435   -182.3857805   -152.4036834   -123.8045214   -94.99389499   -68.51227986   -43.52828655   -19.70869926   1.734445571    21.4143686     38.6736144     53.64069968    66.72877054    77.07259602    85.11805257    91.85514209    110.1831089    228.3444308    350.2901201    290.92366      161.5497522    162.4136939    187.4639697    230.2118586    286.8150017    359.3632108    402.1656808    403.1461707    391.0177611    375.8500649    359.0022867    339.4266737    318.4655892    294.5891467    268.8774395    243.1418475    214.5656172    186.4287726    158.4882627    131.3210818    104.7525939    80.41963315    58.39594732    36.93914561    18.40336011    2.791119895    -11.21474537   -22.65854798   -31.39340686   -38.86241045   -65.61511426   -215.7203274   -329.3300651   -227.9798337   -100.4456094   -246.0271737   -324.8211229   -176.9777797   -113.0463368   -45.59713925   -129.1705703   -276.4860135   -367.8917259   -353.7452292   -334.2867011   -318.6825983   -267.9652218   -147.2538249   -49.03794514   -50.38850957   -53.44246478   -71.49303385   -189.4145572   -338.6454857   -362.2170041   -270.5869128   -115.0979596   -49.24258726   -72.73703306   -96.96087482   -138.7431022   -196.3352763   -269.9289833   -342.2638652   -378.667623    -375.0486592   -355.7000513   -331.2623396   -305.4951626   -280.200774    -254.4034441   -226.7962363   -198.5004416   -169.8275401   -139.2839638   -109.664913    -79.96005198   -51.52924413   -23.67363695   2.490025271    27.15553153    50.53422966    70.52923057    87.92800974    103.8081512    115.3982116    124.8918499    133.2237629    154.0149849    277.7728246    385.8404938    321.0235412    196.8328972    198.6952171    215.9985822    244.9559293    283.5700846    332.3322974    390.3818175    425.3822955    422.6918827    409.4339071    392.1633642    375.0392723    357.6551513    340.2065171    319.7287317    299.6004428    277.4859908    253.4482104    228.2863459    202.4246051    175.6068628    148.4133118    120.1724261    92.82401334    65.22529941    37.79625247    10.44602914    -15.88156432   -42.56186566   -68.39441614   -94.24096511   -118.9094121   -141.9849549   -164.8651289   -186.3778137   -205.0970827   -223.2249383   -240.1349624   -254.9448505   -267.828665    -278.7063741   -288.8034346   -296.2623639   -303.8836382   -310.8664792   
10       NO_ID     451.948245     180294.7384    1e-06          0.8485816676   2              1e-06          1e-06          2.101017159    46.00723751    77.38950374    31.39582921    -20.77177289   -11.45852178   0.7078485995   33.38495157    67.17356094    97.90537412    73.62923339    74.00731411    71.67041419    13.57474878    -25.54466423   -2.003272646   35.77941218    6.618840866    -7.787008055   110.0132771    44.77090266    -14.16785698   -35.35767321   -34.5762885    2.150962008    -17.99080901   -27.62503945   -19.17682697   -4.418828326   14.46677809    0.3999638628   -83.11380516   -25.29231577   41.30923118    74.00343763    73.73602411    81.7387225     94.38999947    106.5251722    115.5619587    120.7257847    120.725681     88.18271032    59.17363627    102.6345468    132.4449178    138.143424     99.85791017    121.9019262    132.3381617    102.9467745    78.83392484    61.62573617    133.5512186    118.7403142    83.46831932    75.61452961    96.47954235    112.1694446    39.58276538    37.0357815     85.06571241    85.97417165    55.33986578    74.74187492    115.1312122    140.483335     117.8925978    112.6735635    82.3671922     67.31480745    53.32695991    48.13540628    94.75045464    123.4367566    83.57472466    43.15226213    12.75823429    -9.811365418   -30.20532332   -43.90775217   -57.36368382   -67.71702239   -76.51854968   -82.73172121   -86.61494061   -88.68596367   -86.35549928   -62.55533691   -58.7051695    -96.39380302   -117.5986674   -95.29900113   -81.31273524   -75.29080748   -66.79834403   -60.46262139   -60.03961078   -77.69989099   -106.4679888   -83.91480514   -47.14371677   -12.8065885    16.5884497     40.59444791    62.44511893    80.99685099    99.05385353    115.5706205    131.0584827    146.0316602    159.9730502    171.8493047    182.6930585    193.5369179    201.7988378    210.0609017    216.5155915    221.4211328    225.8103048    228.3921428    230.1994295    230.9739162    228.3918074    218.3219189    198.4062096    174.8346557    161.6563056    141.3362912    84.93721389    42.66903358    18.44503357    8.2983031      47.1844008     77.19642773    62.62763578    46.000018      49.34436462    71.60532818    54.51913872    43.64950162    135.124059     182.7052967    202.5739859    205.6705909    172.2437575    144.0280668    128.0089839    125.1424993    81.98377503    56.09550131    78.28267743    100.0242479    105.7759767    57.12738902    138.7914       165.5565242    130.9173213    99.18518996    104.7964659    130.3991144    154.8657426    188.4300609    171.496686     162.2838109    148.8530185    136.3376323    123.2474079    115.3301773    116.6541414    109.9336338    83.68389385    48.46024833    18.91099187    -5.710016285   -26.05005594   -41.72417615   -57.21042292   -70.25788269   -82.60122449   -93.9458838    -103.2388187   -112.0248451   -120.5583602   -127.8009574   -134.5279494   -140.479695    -146.1734739   -151.8678902   -155.7502579   -160.1508026   -164.033789    -166.8811677   -169.7286842   -171.7995954   -173.6116668   -174.9059733   -175.1646319   -175.1644307   -174.3875054   -171.7981469   -153.6733527   -147.5302826   -153.3738721   -180.5778972   -175.9161681   -167.9533613   -162.063178    -154.5240275   -150.3850177   -143.2662392   -142.2053869   -121.5138952   -80.6621037    -39.90079599   -5.489449035   22.01811245    45.54697972    64.69082194    81.10670197    96.79963706    108.9031758    120.5034598    131.0782488    140.8824314    149.3981323    157.9154287    166.1754034    172.1122406    177.7914341    182.9544773    186.0521564    187.8590883    188.3751078    186.0511245    161.2154971    122.2517808    112.3464335    147.5990145    175.8251202    131.4430247    114.4119722    159.1446057    172.1547975    193.7767006    165.1995669    130.8607417    112.9333714    74.31843155    43.01973775    39.66121976    59.23105028    81.14211891    64.66712948    96.39903956    136.6923305    128.747965     94.09234424    80.10108514    89.92137199    117.6654869    138.8816586    168.6576139    151.6429074    139.835039     125.979239     111.9267876    98.00152747    94.37353016    97.19740698    78.22658689    44.05071372    13.43940431    -10.70679645   -31.19865306   -48.79754772   -63.31749249   -76.4060518    -88.5147834    -98.06153521   -107.6222855   -115.8960969   -123.9151887   -130.6421899   -136.8530401   -142.0290482   -145.6522836   -149.5348465   -152.6410281   -153.6759672   -155.2291096   -154.9698448   -151.8625235   -131.1484566   -123.066525    -136.7512829   -162.9992844   -155.0826083   -147.1446308   -142.6954958   -137.0206386   -132.5260644   -129.3509042   -124.4031418   -128.9173627   -129.9910113   -106.2761368   -74.53224131   -43.15406876   -15.5719783    8.822517622    28.15077675    46.7215752     62.84112824    76.96061485    90.08160989    102.7051056    114.5646373    126.1723077    136.7508812    148.1064946    158.947281     169.5308257    179.5986157    189.9251097    198.9608416    207.7387077    215.2256463    222.4545467    229.6836218    235.3635079    240.527045     246.4652417    250.8543796    254.2106429    257.3088016    259.8906327    261.9560646    262.2140637    262.4721725    259.8901052    255.242383     
11       NO_ID     458.1845909    197874.8997    0.02300515685  0.8991445879   1e-06          0.01949678175  0.03148278082  2.305882945    50.50254571    136.3582706    76.87352769    34.98175493    -89.92436927   -150.3988454   -117.2491806   -94.31315964   37.4928773     171.9962699    114.509642     86.55263146    26.46992935    -1.813658713   20.60078413    94.9889776     78.27136088    19.83594172    -24.33021214   -43.72426894   -54.98193116   -52.63553025   -43.56753097   -18.09359839   -33.67882206   -72.82488022   -77.03174954   -71.62152911   -51.22293483   3.160621003    40.87287044    59.39296122    73.66284632    71.41011559    46.3638356     35.58445325    33.50159058    34.09476415    34.45066286    33.69010805    30.51564965    -0.72057165    -23.42413701   -51.42686391   -30.16504557   73.58067226    44.79766115    60.06824072    83.24040114    112.3651339    100.0621572    49.08795886    -3.133214035   -1.457996318   -0.5395572635  5.419613204    19.2772414     36.60046765    95.40066165    99.41481916    92.55376012    78.93704726    61.61774165    -6.103602399   -10.76278546   5.962040655    122.6812285    125.4833821    93.92711471    86.49061217    77.71281785    42.03123352    -3.179919725   -19.49278517   -20.96835908   -19.54156469   -18.3712484    -16.84675588   -17.87793509   -15.3895394    -15.03784127   -13.60761035   -12.51742342   -10.71778199   -8.503982576   -6.445464258   -2.001328447   15.72044227    32.43650433    55.00951237    36.81197298    -85.6151944    -77.80233174   -76.75326788   -74.92800912   -66.67098423   -36.10235847   7.666808373    11.36611975    9.653940899    8.724102355    10.68137959    14.21920845    17.07644816    20.86593631    23.36407861    26.71122403    29.4713688     31.93782106    34.51595201    36.64963748    37.30848028    37.55519569    38.4693299     37.52434666    37.36266067    36.23532981    34.4575797     33.11618577    30.96527001    29.07744566    27.2260979     23.10880803    12.62662334    1.000225484    -16.22168621   -74.03985619   -111.4341738   -112.7718346   -105.8679485   -100.0291155   -95.24733706   -55.50708623   -33.88925817   -45.94383338   -58.04032067   -57.72199774   -44.20892259   -13.55353171   12.9925618     23.97156675    27.46747514    24.73018885    18.18527712    -13.51907359   -27.89942339   -80.73151146   -120.0953537   -122.0000679   -116.0669525   -89.25703532   -81.25149237   -25.56603038   50.1761166     67.95652837    64.40484087    39.33029292    -16.670302     -64.07933502   -49.21641613   53.07139341    114.7680682    85.20892836    79.49510954    72.17795233    64.10890781    43.21818535    3.310874053    -43.26703774   -75.50394081   -89.48927984   -95.53649604   -95.08497406   -93.51586469   -91.59527218   -88.04401612   -86.45873671   -83.92871879   -81.73683057   -79.29382846   -75.36442709   -71.38681896   -67.56179067   -62.83239262   -57.98008882   -52.76777022   -47.7457752    -43.21333465   -37.4018715    -32.68753683   -28.08197362   -23.11124055   -18.85462754   -14.5767302    -10.83093178   -7.392236276   -3.770063074   -0.7644904736  2.12320491     5.916654818    24.10042293    14.86963588    52.18823375    32.96208252    -42.44909698   -44.83946974   -44.29211848   -43.73783391   -36.94051967   -4.492061915   19.8749114     21.76449076    21.4136572     23.20416852    26.23791401    28.67800583    31.45318573    32.66798705    33.02778051    33.96630264    32.29294594    30.92464598    29.26755843    27.56474265    25.32401728    23.88329176    23.04183454    20.79958542    19.28486894    18.29935738    16.34962908    14.25433439    12.04999344    8.214375049    -16.07215376   -40.40115777   -88.98705241   -60.85540072   48.70202762    15.31222859    -25.72643461   23.84764348    79.44602721    141.7758099    125.934082     63.15791079    -19.80045443   -28.41081179   -25.86865936   -16.83256237   -5.719659664   18.26187892    96.79822974    111.7644741    102.4434661    82.04770338    61.88885842    -14.95232166   -37.29568548   -21.71772831   80.0541472     136.6425395    106.4622947    98.17815706    91.20958093    80.97347833    52.03469114    4.114102314    -32.56681827   -43.59459239   -42.73207979   -37.11277585   -30.7906826    -26.29285885   -22.89177218   -19.14500417   -15.84930628   -12.92478788   -8.476036518   -4.908410227   -0.8420039674  2.711095402    6.77249996     10.52709064    14.44318016    18.98227166    22.27390093    25.29999868    29.30597276    31.65954964    34.65872155    39.31449614    60.05142099    52.79740978    79.88264784    62.49900116    -19.42934522   -20.53814722   -19.72877992   -19.81501888   -19.45092537   -10.64124964   15.65113875    33.88383213    29.23217263    24.09484703    20.36486149    19.55580539    20.19985751    22.16188744    22.37284476    24.1341758     25.0149186     24.95891571    24.62938705    24.30638577    23.58438667    22.89254466    21.40914904    20.92351586    20.14531869    19.34761877    18.29622966    17.79583535    16.33264818    14.97636696    12.73417032    10.67745721    9.103603242    6.502134098    3.942025142    2.749872084    0.6343053665   -1.858978081   -3.926075876   -5.802483378   -7.466421458   -10.19100517   -12.15505042   -16.18791214   -21.50784794   
12       NO_ID     473.217939     189370.1008    0.02532198126  0.8548852384   0.001019908284 0.0136421062   0.0275558333   2.206774508    37.68357898    72.95524699    16.53928039    -24.56287241   -84.42001216   -112.8363964   -79.50656295   -54.85066796   26.34654488    126.63761      69.3623304     45.14424806    -14.57685286   -42.71551361   -22.82695985   38.57107612    17.43478475    -8.369164929   4.420686907    1.107460601    -12.27714011   -13.32975899   -5.716384117   19.94981906    4.240782704    -21.63622928   -23.33678443   -13.86174923   -0.0292545184  15.82191122    11.4796524     15.68976693    32.02618696    35.33065456    15.12484451    7.823432937    8.078454953    10.18973092    11.49684514    11.29369467    8.388424056    -23.47920514   -42.13291704   -31.27003387   -9.068635906   48.82444854    20.1219406     37.76157002    47.37089375    49.83126018    32.87811413    10.04144774    16.74343804    36.98826626    37.67843791    42.23526956    59.34566147    68.30306216    71.05867295    47.20242466    38.90451228    26.29691917    5.880058085    -10.44912994   4.011338852    20.57399386    86.25506944    76.0119573     44.39733863    33.48264653    25.41711588    12.67345617    8.579939535    18.62036152    21.69683447    18.33383488    13.32552302    9.731410732    4.955778035    4.835342753    3.412946907    3.657027223    3.967518929    5.266135311    7.169499604    9.049689202    13.41194016    34.00026034    34.22659038    23.91468315    10.60326295    -58.51037742   -49.53996859   -46.14157004   -42.07580531   -38.85258022   -28.43547468   -13.60410043   -30.07811755   -37.05105481   -34.24675943   -25.79247885   -15.9911845    -8.021847766   -0.3394768678  5.021243219    10.4263974     14.63606381    18.09796705    21.3347035     23.87819746    24.76437529    25.10621817    26.02176891    25.01430959    24.74959332    23.49705927    21.58648784    20.11620132    17.84932156    15.86541317    13.94299928    9.78313204     -0.7106137223  -16.17158059   -31.71330675   -54.32135835   -56.42153337   -53.47438536   -54.4423974    -55.95081151   -55.25807755   -15.75754186   2.638498204    -11.44023813   -23.56350449   -21.79630534   -6.186603328   -6.602659921   -22.21460929   -17.44071135   -8.375200751   -6.443795442   -10.81960495   -43.35567894   -62.07362974   -82.6580565    -77.4942314    -68.94828683   -64.90334041   -38.66453567   -25.79557551   -5.310565548   17.49070419    20.70289761    16.29992238    -13.04060388   -43.98538113   -57.40552155   -38.63077025   24.9418755     64.15766568    33.89449626    26.50428656    16.60103117    8.480655299    -3.139584228   -20.20621085   -37.37218204   -47.2384218    -51.83096035   -58.12293551   -62.32604224   -66.47825657   -69.85647137   -70.70861673   -72.59551873   -72.72224651   -72.52048381   -71.53930015   -68.658865     -65.40981897   -62.06556319   -57.62597203   -52.91703737   -47.73677404   -42.66345343   -38.01873109   -32.05219992   -27.1548612    -22.35061939   -17.17564878   -12.71767996   -8.248356642   -4.326846215   -0.7329737363  3.020003086    6.128966736    9.09032695     12.92617638    31.11202806    24.26003627    22.00086992    -0.5367882346  -30.77505362   -30.07560291   -27.00918688   -24.21229881   -23.44714122   -12.09829039   -13.26906816   -23.83049478   -22.3232717    -12.45188198   -0.7320752247  8.969479957    17.27455842    22.53104036    25.78203325    28.75726014    28.49522274    28.08286813    27.05093676    25.73400983    23.70766139    22.36054742    21.53039086    19.24655781    17.66004946    16.5900353     14.55654594    12.38830844    10.12915394    6.261730369    -18.29039237   -44.56120551   -61.27801231   -33.22395354   38.71875298    5.197486251    -16.64134635   24.39310308    61.34661361    106.5696349    85.73859363    48.62647475    13.46055721    15.48835831    14.44277248    21.18780057    36.18329034    51.40813535    76.35835775    62.50984309    50.53354192    30.71229787    6.78828669     -22.67839913   -20.49473292   -1.152239041   58.45740725    91.30409316    59.98563391    50.01279481    40.18135345    30.96423884    16.37385916    -1.799592992   -8.460237186   -4.035363173   -1.608933204   -1.068797042   -1.38225938    -2.931555255   -4.404364481   -4.376471166   -3.837124603   -2.916423888   0.100832752    2.666658873    6.051476973    9.159963412    12.95036233    16.55910113    20.41713573    24.9570139     28.28572423    31.36766108    35.43469853    37.84431155    40.8870606     45.56895914    66.30627754    61.08382       49.32037681    28.56714458    -6.609697375   -5.284162055   -2.733925252   -0.4039401795  0.08401108861  1.447460959    10.00900832    6.396960761    -13.40054711   -22.64247046   -22.60213085   -16.37810304   -8.343823832   0.1269527825   5.639315711    11.5501168     15.60556012    17.94015819    19.38447551    20.35466381    20.55214855    20.48907689    19.40796976    19.14798133    18.45774918    17.64105363    16.48818778    15.8235427     14.14939789    12.5486579     10.03953448    7.702645326    5.843194062    2.957406918    0.1199635021   -1.337591496   -3.702400854   -6.425152251   -8.698762706   -10.75615995   -12.5733443    -15.42164276   -17.47850411   -21.57225173   -26.92047439   
13       NO_ID     471.4333336    197562.1452    0.02297203515  0.8415323808   0.004653215197 0.01811548257  0.02950225191  2.302238343    25.46264244    51.35384961    0.4597377145   -26.51145871   -61.65324152   -86.5992982    -53.29329489   -39.19719447   17.65897337    110.1224966    57.85849954    36.75163181    -22.72024416   -36.77640354   -26.36456744   15.67641709    2.428942296    -5.067776196   23.13493167    17.15794134    -1.184038132   -5.017192      1.621564253    13.2051972     3.585982724    -4.949943901   -2.264964335   2.323811064    6.371428702    6.416378153    -8.215529122   -1.915719327   19.64520609    26.98331915    9.473741763    3.997272607    5.535842923    8.569496044    10.5290781     10.75374408    8.072521336    -23.18546724   -24.8227077    0.6918899734   13.78775199    38.38312047    22.44248264    35.93454008    33.06484645    -8.203303772   -18.3077901    -21.14933527   15.41711358    46.93077971    48.80842666    53.19291286    66.8895154     61.52066139    45.04978087    21.50610008    18.63750494    7.799938427    -1.427887405   5.147147966    24.93967808    29.60408446    70.59648141    58.2970077     26.73478245    19.59704851    18.9386672     18.73166138    28.33849088    42.33870214    41.67618126    33.64698191    25.10530627    19.03593917    12.48500894    11.03104481    8.566236557    7.976852863    7.619542159    8.394398731    9.907794034    11.52748795    15.75743251    33.43469335    13.06136637    -8.741648695   -8.028824136   -44.20933672   -34.60964821   -33.58781058   -33.92703072   -37.76518942   -37.78162234   -33.71530072   -54.97432994   -60.44325953   -53.9368146    -42.00612294   -29.49977092   -19.49195078   -10.2361631    -3.607568201   2.866005044    8.010975664    12.31536404    16.32558035    19.58700322    21.14265924    22.10858722    23.60333781    23.12918788    23.34993666    22.53272164    21.00480539    19.86195245    17.86508602    16.09176297    14.3188847     10.24640246    -0.2238796123  -11.62618898   -16.16412334   -21.16437685   -15.30732903   -17.7051252    -24.92787436   -30.28666916   -31.43657652   7.960595869    8.451472308    -6.850100646   -10.60187976   -10.25978465   -1.803951299   -18.63553561   -44.48936923   -35.11704556   -21.16848164   -16.60428902   -19.90083082   -51.6327647    -60.54816754   -61.35422537   -42.0926175    -34.74313078   -33.74844282   -8.00245801    -3.930866785   -4.702816618   -0.5951965833  1.276514873    -1.653197927   -26.11943942   -35.82624275   -35.84503176   -23.87516525   14.41683568    44.66578797    14.55580941    8.812443035    2.191879338    -0.7661558713  -4.582582968   -10.76035554   -16.54145867   -19.50927744   -23.03705562   -31.48994761   -38.63067829   -45.45714852   -51.02248325   -53.6299174    -56.94935038   -58.28108306   -59.12661835   -59.08283299   -57.06142854   -54.61342969   -52.02497857   -48.30361332   -44.27952178   -39.75259866   -35.30145889   -31.24702843   -25.83752942   -21.46217866   -17.14279387   -12.41349234   -8.359865639   -4.251460842   -0.6456120554  2.679639604    6.212479836    9.151034786    11.99274488    15.76035159    33.94286111    11.60051244    -11.3478301    -29.51638291   -23.30239402   -20.28781486   -19.78143592   -21.79253225   -28.9144252    -29.25090227   -41.61264728   -56.27442065   -52.97687216   -39.72412855   -24.99176384   -12.9677353    -2.891696375   3.761749972    8.165827389    12.13352897    12.75376118    13.14294567    12.84826503    12.21277346    10.81557274    10.04584144    9.740136141    7.925517993    6.750391051    6.031171615    4.285178609    2.338951663    0.2344474756   -3.547080571   -27.84329163   -38.44505964   -37.44018426   -19.0285842    33.52237487    14.4161971     3.126734182    27.93607708    55.25269693    92.15706464    78.79288222    60.03589173    41.87515542    43.66920618    39.35755241    44.78370145    55.6057198     55.75769602    57.6072666     36.38676978    26.10244739    7.080675351    -5.27108557    -10.31060942   0.8924849561   11.34658985    47.18163897    71.04778612    39.63472894    31.31986107    25.25593219    22.28747891    17.50218908    12.32717493    16.2750193     23.95845528    24.44447297    21.62062969    18.23267381    14.24006837    10.86501591    9.378577464    8.668580817    8.521234922    10.59831201    12.31893888    14.93398841    17.33714312    20.48102461    23.49992233    26.82468845    30.88903842    33.80186143    36.52961394    40.30628355    42.49129378    45.37672829    49.96979164    70.70579904    49.41349689    17.17982679    1.73184772     0.9126066449   3.875206305    4.709025528    3.90585594     -0.3981856314  -6.125310971   -7.162789242   -20.42932859   -45.72969414   -55.36584009   -52.96261077   -43.78069799   -33.10706334   -22.49846723   -15.28240487   -7.989357493   -2.775983003   0.56335558     2.908142856    4.707269701    5.683634789    6.363228559    5.997275753    6.430097275    6.413143587    6.251332433    5.734992595    5.687804813    4.6107437      3.585146654    1.627322832    -0.1840143339  -1.545674288   -3.963480142   -6.364683708   -7.419668386   -9.417342494   -11.81001432   -13.79221126   -15.5981184    -17.20495043   -19.88503173   -21.81657101   -25.82850174   -31.13881601   
14       NO_ID     478.9623096    198342.6438    0.02209721006  0.847262874    0.01095094361  0.01735002438  0.02645777611  2.311333678    24.17818782    39.53567495    -9.254926195   -34.66891522   -62.648541     -82.79289221   -49.45734698   -36.44396482   15.41821379    103.2500271    50.66628435    29.83657203    -29.60553897   -42.58847227   -33.48653967   -2.670538447   -15.20442759   -21.20786796   13.09808983    14.19200097    -0.8135764417  -3.41210654    3.573720153    14.17154592    5.137393494    2.566528999    8.242156575    12.37628268    15.80859638    15.12107512    -2.691621702   -0.9762516168  17.59255704    23.51138476    5.440982083    -0.1832623028  1.395431443    4.542612044    6.627458434    6.954405906    4.332971606    -26.86693829   -27.71059289   -3.453147092   8.610190694    21.21886231    6.197808124    19.30368624    16.44120367    -4.445745392   -13.94891483   -17.29594962   15.78372589    47.08444674    49.76364034    54.48459594    67.85832208    61.69899511    45.80881948    21.59575267    17.84596548    6.763530387    -1.643623185   3.331705466    22.49822803    25.96104092    63.73148479    51.66941854    20.12748001    13.34375612    13.16195549    12.75740052    21.97116208    37.91986612    40.22195839    34.27705209    26.8314877     21.23187649    14.80273226    13.2859128     10.66633076    9.884707763    9.331373439    9.928378571    11.29677518    12.81409537    16.99045076    34.3922657     13.81873868    -6.630581405   -3.928964386   -29.49783972   -19.77780662   -18.98128123   -19.69574436   -23.88170183   -24.15593507   -21.45627562   -46.46989902   -56.55643433   -53.65046887   -43.96754988   -32.71196354   -23.32970292   -14.32331567   -7.717418101   -1.128037436   4.218194584    8.776224817    13.070878      16.63268459    18.49396063    19.76261729    21.55075559    21.35538399    21.83586107    21.25561335    19.93872207    18.97821253    17.13281091    15.47824451    13.79000599    9.76709895     -0.6898578323  -11.71190903   -15.75833243   -22.70044176   -18.77930848   -19.9477982    -25.66977978   -30.18718704   -30.9788423    8.437258229    7.964347758    -7.306830471   -10.75555584   -10.54904819   -2.64274286    -18.64667411   -42.34105709   -33.261613     -19.84305335   -15.48301606   -18.82743124   -50.48276438   -58.65509298   -60.89964452   -44.64981598   -36.96306782   -35.1473993    -9.27201983    -5.972576245   -6.681631518   -0.3125600933  2.412398553    -0.4010226568  -24.41762144   -34.65711115   -36.88004751   -25.57604907   9.198904735    39.29694232    9.487854519    3.901137315    -2.421395092   -5.046427001   -8.853931278   -15.76203      -22.48730845   -25.22189243   -27.169353     -33.70420493   -39.29489056   -45.08828503   -50.05175121   -52.36675725   -55.60493644   -56.99781521   -58.00071464   -58.17959566   -56.42508618   -54.27345738   -52.00013591   -48.60459895   -44.91071577   -40.71325457   -36.58654917   -32.84783111   -27.74210378   -23.65573187   -19.6079459    -15.13061253   -11.30726716   -7.405606732   -3.981406935   -0.8112896863  2.594064726    5.433727906    8.20590095     11.93381077    30.11437549    6.894261442    -13.52174163   -31.27078324   -14.88060683   -10.99886783   -10.7347543    -13.13629289   -20.49714974   -20.6785469    -33.8470094    -51.58053122   -51.98243921   -41.48313418   -28.3983066    -17.24105057   -7.549790715   -0.9924207878  3.489010049    7.638979717    8.50449904     9.175223681    9.180313507    8.850032921    7.753912777    7.273646813    7.239784791    5.674350693    4.721622141    4.194553465    2.607559929    0.7849637932   -1.233015904   -4.966350651   -29.23817982   -38.98536505   -40.03294699   -22.16628696   32.7714606     14.34914217    1.903496075    26.46116355    55.06290609    93.4459804     80.7165        60.90188137    38.61499678    40.04328934    36.41264751    42.11314228    52.54437329    52.36215274    57.91419776    38.97080673    28.57000647    9.420296591    -2.11833997    -10.06866903   -1.133826604   8.645246683    46.9525363     72.93758802    41.58008029    33.42290701    27.69557193    25.03582184    19.75171475    12.38899634    13.61799695    20.18870605    21.03519822    18.95001241    16.13659523    12.45671195    9.177115789    7.631772984    6.759190427    6.381784722    8.186620812    9.610765993    11.91822799    14.01268527    16.85462228    19.5847535     22.63924474    26.45630104    29.14864735    31.68591726    35.30475458    37.36673609    40.16554245    44.70952852    65.44481083    43.28565549    13.76412694    -1.160748034   8.019634435    11.56750878    12.23815855    11.15259462    6.539148749    0.7255776387   -0.04987592207 -13.43854487   -40.31339775   -52.65868548   -52.94179052   -45.79321126   -36.45352913   -26.63885249   -19.84303273   -12.72027579   -7.510419403   -4.06206241    -1.531130724   0.5077667313   1.761517089    2.744848069    2.700780923    3.467406555    3.791282207    3.973309163    3.800434005    4.093415283    3.35059628     2.650983964    1.008695362    -0.4995067139  -1.572262678   -3.717110472   -5.862843038   -6.681301716   -8.462694004   -10.66049166   -12.4703394    -14.12729832   -15.60940648   -18.18966029   -20.04678002   -24.01010437   -29.29789213   
15       NO_ID     477.679733     205034.4755    0.01987399258  0.8615123611   0.02965684012  0.01940236099  0.02575820238  2.389315179    16.04762768    38.22492489    -9.474008155   -24.05026479   -40.05142011   -64.0409293    -30.77041205   -25.99807323   10.5304642     95.32939062    46.47198583    27.57414308    -31.71786903   -35.07674387   -31.52461471   -15.90636801   -22.30661652   -22.01574259   9.478311377    9.330270791    -5.269007402   -7.60249674    -0.5476408069  0.7120787382   -4.180633896   1.778892709    12.16949426    12.38470749    10.29939199    9.383097543    -2.538852242   2.029791253    20.69262978    26.33769134    8.240371113    2.818111437    4.718671423    8.216748614    10.61758901    11.18326132    8.696796426    -22.00515303   -13.57377235   5.631711573    10.93797786    3.335869661    -3.449781076   6.342146352    -1.275342063   -11.02085787   -15.20295728   -13.93946875   11.52981662    40.50650641    44.23348579    49.54725702    60.14691405    45.90879009    34.73933895    19.71087211    18.97840457    8.473482117    7.876734525    10.28909997    25.49882886    20.01968953    49.34572935    42.33100708    10.90928933    7.176067514    11.75367999    13.24249966    17.98454119    30.60712884    33.88388456    29.9544739     23.93795213    19.05051661    12.8266827     11.2072578     8.316762827    7.188816963    6.275967029    6.542911581    7.640103424    8.964987732    13.04032797    28.0759577     0.2875520272   -14.06047364   -1.331388346   -9.047237158   0.657881613    -0.4796809114  -4.513086744   -12.2374884    -13.72923854   -9.461470507   -34.10684709   -46.72991746   -47.26834436   -40.3879145    -30.96813333   -22.61899055   -14.07555769   -7.547792121   -0.7810254864  4.910855814    9.923617147    14.7409598     18.86381484    21.30247387    23.14781962    25.4983178     25.83980761    26.82225278    26.70124779    25.79419446    25.18840006    23.63801219    22.21496607    20.6918428     16.76568655    6.334740188    -1.409706466   0.6941514388   -9.664814068   -16.32475891   -20.44606781   -25.40254462   -28.999748     -29.31442867   10.12833402    -1.174987821   -16.70466223   -15.49690309   -16.45336644   -13.68118764   -30.51179412   -43.02852353   -28.94817842   -14.54993189   -9.918575772   -13.14641514   -44.14497158   -45.30130256   -47.19035903   -41.91053981   -37.84943646   -35.9588722    -10.00007369   -13.51020348   -19.96202392   -5.525990343   3.173169613    2.061811323    -18.05596845   -23.1672605    -31.07183444   -25.18994894   -4.020166235   28.87235117    0.2270370692   -4.016069315   -7.740606852   -6.990727241   -8.217603288   -15.62077145   -25.78356976   -31.23006495   -32.95357393   -37.40644482   -40.64107805   -44.55027137   -48.24505328   -49.82515339   -52.73666278   -54.10068288   -55.28809856   -55.80325415   -54.49216783   -52.85852619   -51.1534374    -48.35779964   -45.28085319   -41.70553398   -38.19637579   -35.06225947   -30.54100274   -27.01268572   -23.49091682   -19.50271013   -16.12721891   -12.62823221   -9.558245245   -6.690919646   -3.534572364   -0.8881711936  1.74805464     5.398336938    23.57509822    -9.320344118   -25.50289726   -39.74163562   -2.244812621   2.871445008    1.054656288    -4.881169903   -15.63399217   -16.07006315   -27.08150416   -45.22916215   -49.02090066   -42.23746719   -31.89240902   -22.41585353   -13.60618926   -7.387942138   -2.889666021   1.507781237    2.7680677      3.924419431    4.466533457    4.696055861    4.160927267    4.225979943    4.708313761    3.618810453    3.092693501    2.935403895    1.655122449    0.07142292324  -1.779164594   -5.419196761   -29.48198075   -29.54436366   -33.01891901   -21.28763937   35.50540218    25.49976928    11.7913708     28.86833374    58.84484365    99.85277841    92.81783179    75.06464236    40.71503212    37.79111912    34.32096889    40.3104958     47.37090116    40.14992369    53.32987407    43.05988718    34.36642925    15.33089418    11.79469852    0.5625927616   3.340762576    6.704945859    46.36349928    78.31192307    47.42505965    40.62049403    37.84805415    38.86879151    34.97166856    23.15896163    16.62315714    18.30876695    18.15747376    16.79626227    14.93023823    11.91114333    8.936755469    7.400793934    6.319388047    5.581038472    6.923574242    7.822174013    9.569680473    11.09206675    13.36743556    15.55083651    18.09020939    21.4336089     23.70208496    25.87211787    29.18602598    31.00995398    33.64096235    38.08982432    58.82370087    26.77669663    1.501449528    -9.202361471   21.57525573    26.01597323    25.28687925    21.73555028    14.03052906    5.797240909    4.914912132    -6.710158869   -32.905238     -47.09795266   -50.56298737   -46.4977697    -39.53213081   -31.32556193   -25.50741008   -18.89026249   -13.84464775   -10.31587674   -7.528877484   -5.107162979   -3.378833971   -1.854656251   -1.310616727   0.07676936515  1.042548337    1.878227633    2.362920405    3.310704023    3.21400831     3.146667954    2.118019602    1.200611206    0.6918962819   -0.9192831421  -2.564953258   -2.919987846   -4.277285174   -6.092716431   -7.564214436   -8.928637378   -10.16570196   -12.54977324   -14.26061331   -18.12838351   -23.37188354   
16       NO_ID     480.148596     207119.5066    0.01891885025  0.8673147703   0.04473251938  0.01957494409  0.02513923442  2.41361254     13.52064321    35.60990282    -11.93086811   -22.7291503    -27.67359515   -50.16951008   -16.91939968   -14.93562982   9.150021479    86.22686022    39.87649252    22.5547462     -36.61495252   -36.69827331   -34.83452053   -22.74328178   -27.19381397   -23.66037145   10.24242187    10.93489694    -3.550848202   -5.95523287    1.049006453    -0.7300863718  -4.337190526   3.874868929    15.94020923    14.93127061    10.9698255     8.849570443    -3.275936142   1.041853923    19.4842332     25.10521016    7.137611243    1.925778227    4.062964703    7.787314664    10.37936468    11.08472688    8.675905046    -21.87090074   -10.82843234   6.803022683    10.01366333    -6.845212649   -11.13119814   -2.372203598   -11.71063023   -16.94298738   -19.49010873   -16.92808789   7.728715965    37.9722304     42.97393033    48.76629971    58.49998601    41.34517232    29.46051969    16.38056898    16.79974418    6.593398137    8.336411665    10.05859091    24.56064321    15.96167016    37.95628972    33.47290268    2.131472611    -0.6551929058  5.346573113    7.514364393    12.1882056     26.09661429    31.54219445    29.34650031    24.36242112    19.98474968    13.94536693    12.3214253     9.323536857    8.039734223    6.957924779    7.066555121    8.032226214    9.263213232    13.28910661    27.58987118    -1.839924083   -14.19252828   1.749666264    4.215830472    13.92643359    12.18739339    7.143961856    -1.602232168   -3.568714889   0.2997334928   -25.91482657   -41.0720363    -44.03369978   -38.93780035   -30.66088217   -22.96964467   -14.75083849   -8.325449901   -1.513862386   4.320103784    9.538601557    14.60210728    18.99493405    21.71508512    23.84401425    26.47270064    27.0809008     28.31350486    28.42190359    27.71993775    27.2918846     25.88947135    24.58263815    23.14243811    19.26488718    8.847009758    2.115273744    5.788217819    -6.571077899   -16.11703674   -20.11585468   -24.12506385   -27.06133734   -27.06331163   12.39662002    -2.353291208   -17.98233602   -15.50751445   -16.82630942   -15.65906627   -33.0863004    -43.04212932   -27.55117623   -12.66461937   -7.793098062   -10.90749594   -41.701453     -40.81768139   -43.63193926   -41.68363879   -37.86880473   -35.45296008   -9.39964186    -15.08375448   -24.67694741   -9.514539323   1.260603183    1.032382743    -17.88598902   -22.12206337   -31.75348221   -27.59519207   -14.06738266   20.17252597    -7.614676741   -11.43956588   -14.36808043   -12.6528366    -13.28609667   -20.94058915   -31.61789596   -36.61371663   -36.74312234   -39.21834916   -40.71584526   -43.33707832   -46.17174655   -47.23032531   -49.86997493   -51.14143507   -52.36400994   -53.0051552    -51.88448912   -50.48656197   -49.04830317   -46.53985658   -43.76206765   -40.49114627   -37.28610992   -34.45118932   -30.22023858   -26.96990308   -23.71074729   -19.96717191   -16.81598831   -13.51890936   -10.62669136   -7.911436346   -4.880216764   -2.330971474   0.2368913405   3.848130298    22.02297848    -13.49724862   -27.1601991    -40.30575118   5.841512089    11.67639272    9.213504038    2.228617627    -9.349576373   -9.625171737   -20.40483952   -39.86433022   -46.0302597    -41.47445653   -32.72949816   -24.25269611   -15.99851014   -10.03316694   -5.587201781   -1.110324883   0.3150132505   1.690616641    2.484131877    2.981207121    2.717748827    3.049240293    3.785368601    2.930926673    2.616217021    2.642625155    1.514989269    0.05034105324  -1.716753424   -5.310222081   -29.30787273   -26.73491321   -31.97300018   -22.0497702    35.89326951    28.14271644    13.50517051    28.52939216    59.25047237    101.4473734    96.1206186     78.11307402    40.12396146    36.92139523    34.10659697    40.37510603    46.39077718    37.34256288    53.5149049     45.69741274    37.33513391    18.29250248    17.04527311    3.430780736    4.132936776    5.564692773    46.32393511    80.34560387    49.63578547    43.25214725    41.37682541    43.35779082    39.33952928    25.52260741    16.58480731    17.31660139    17.49576683    16.86405845    15.63420416    13.02650642    10.25157183    8.750641224    7.585747457    6.681718442    7.803565012    8.446663133    9.919074333    11.15851635    13.15236195    15.06319051    17.34511704    20.45135147    22.50729078    24.49298563    27.65370737    29.35797385    31.90460076    36.30561495    57.03878434    22.33227457    -0.3950462242  -9.785419502   30.54221209    35.53660065    34.3719746     30.06769263    21.48805188    12.71498477    11.96355988    0.5823912215   -26.30264842   -42.24905495   -47.82566799   -45.62886146   -40.07354563   -32.83376297   -27.62661717   -21.35502617   -16.46224573   -12.94726788   -10.07348375   -7.491837029   -5.550167581   -3.773687661   -2.949181857   -1.261458185   0.01801013698  1.175439643    1.985560235    3.258739143    3.48415413     3.732815294    3.011474912    2.390414146    2.165001622    0.8221593579   -0.5718473179  -0.6934859057  -1.837065094   -3.459710451   -4.760545326   -5.977364238   -7.090754838   -9.37579176    -11.01277734   -14.83229849   -20.05343455   
17       NO_ID     480.5597927    207661.5183    0.01855035012  0.8693593753   0.05160426952  0.01985862638  0.0250480448   2.419928731    12.8639606     35.08814484    -12.40908194   -22.1679747    -22.82068894   -44.78004658   -11.54044501   -10.30680246   8.917302669    82.62043837    37.57662686    20.9884222     -38.12607193   -37.29071673   -35.86523454   -24.43709479   -28.37065081   -23.74802811   11.10476979    11.83576655    -2.852617012   -5.41021648    1.531798023    -1.072655552   -4.345629456   4.434558509    16.98308102    15.65460251    11.16635694    8.560680723    -3.764785352   0.5424089932   19.05628997    24.79108631    6.956773203    1.882085637    4.149187823    7.987956734    10.67255421    11.44391851    9.071326466    -21.43515171   -9.810827162   7.171963953    9.839506797    -10.0476285    -13.71404751   -5.223588818   -15.04881205   -18.65069476   -20.77906835   -18.00255818   6.341182985    37.00814136    42.42349117    48.36910706    57.87712058    39.85269968    27.39114963    14.93605706    15.8742487     5.814547007    8.141270905    9.539963176    23.8579083     14.38938947    33.48180165    30.15473016    -1.150905449   -3.692444266   2.661607753    4.963502814    9.689924195    24.18413857    30.46197313    28.89788848    24.27630127    20.0663408     14.07468411    12.42943921    9.373438007    8.015235183    6.856216399    6.893990191    7.801454404    8.991146062    12.99536382    27.10573313    -2.53619239    -14.14573248   2.635475684    8.684352352    18.39093962    16.49584513    11.19683955    2.219151752    0.1843662602   3.930118673    -22.86112537   -38.9310931    -42.7590243    -38.2989959    -30.42592072   -22.96157804   -14.84689983   -8.443066901   -1.597965326   4.306070684    9.618584057    14.79123093    19.30193215    22.14390532    24.3948869     27.1428705     27.86516282    29.20459245    29.41083113    28.79625471    28.44388788    27.10445481    25.84706616    24.44213855    20.58525941    10.17293983    3.702029124    7.680117609    -5.586610396   -16.09776436   -19.98747681   -23.63695585   -26.33206805   -26.22198344   13.24405427    -2.43969845    -18.10141888   -15.35128797   -16.76428709   -16.02133545   -33.69484732   -43.03489069   -27.06534385   -11.9420318    -6.937834542   -9.989776566   -40.73055877   -39.35662896   -42.74551778   -41.85607461   -37.99265698   -35.33844594   -9.24541517    -15.51052273   -26.2979977    -11.27881363   0.2541662829   0.4053683832   -18.20535995   -22.43487746   -32.60703084   -28.90101508   -18.10071543   16.84013013    -10.56741896   -14.28371127   -17.00901144   -15.06743683   -15.61675156   -23.42624575   -34.23537385   -38.946055     -38.38253576   -40.05557064   -40.8644838    -42.98013453   -45.47962255   -46.33734367   -48.87534017   -50.11664556   -51.36020293   -52.05884124   -51.02165342   -49.72551522   -48.40163402   -46.01578656   -43.36538828   -40.22388498   -37.1480154    -34.44008024   -30.3322822    -27.19983092   -24.05201489   -20.41213733   -17.35602425   -14.1445138    -11.32762908   -8.676813836   -5.698615044   -3.190536854   -0.6516404495  2.943055438    21.11709303    -14.9765197    -27.57556831   -40.43699178   8.389158309    14.49417032    11.86397406    4.621212037    -7.099647903   -7.214511097   -17.92960616   -37.93752431   -45.0281875    -41.32801545   -33.19661051   -25.1023975    -17.05858368   -11.18528268   -6.752272381   -2.236059013   -0.7372354595  0.7335142709   1.634987277    2.246352861    2.098603267    2.543376313    3.387291871    2.632610313    2.407579981    2.511888295    1.448970479    0.03478990324  -1.696913924   -5.270646521   -29.25136573   -26.09700398   -32.10865484   -22.6328523    35.7878412     28.5256924     13.48426202    28.04338825    59.05986279    101.7009901    96.80086317    78.47420507    39.42789779    36.36527524    33.87593649    40.26826677    46.01357865    36.57795379    53.76840809    46.65140837    38.36401341    19.31501388    18.60810572    3.956698171    4.004836726    4.948327153    46.20517181    80.90729678    50.26257318    43.98820969    42.33976389    44.52087567    40.31848211    25.77246973    16.12102138    16.68197117    17.09405982    16.78655931    15.81552115    13.36712075    10.66376979    9.167884984    7.960515187    6.981209892    8.005921332    8.538154443    9.892115753    11.01028876    12.88382844    14.67840389    16.85067634    19.85599081    21.82155147    23.72889716    26.82453309    28.47797045    30.98876036    35.36945554    56.10232464    20.82091278    -0.8449664772  -9.894158829   33.48816042    38.69282982    37.41515893    32.91945427    24.13799704    15.29379237    14.66603767    3.361208921    -23.84079702   -40.49450357   -46.89602865   -45.42306144   -40.41337647   -33.54728365   -28.57518517   -22.43444618   -17.59629797   -14.08056561   -11.16569527   -8.513455189   -6.479536171   -4.594940261   -3.650811227   -1.835328995   -0.422635103   0.8713080632   1.819415555    3.230511243    3.59241454     3.974952064    3.383790232    2.888255966    2.782838762    1.553650038    0.2662331321   0.2434465743   -0.8096151435  -2.350608511   -3.579161036   -4.733463788   -5.794473348   -8.03756498    -9.643269931   -13.44235543   -18.65401933   
18       NO_ID     480.6197912    207864.8491    0.01838763605  0.8701743422   0.05466073846  0.02001346999  0.0250186899   2.422298193    12.61763221    34.97082608    -12.50885988   -21.87420286   -20.75884404   -42.54721797   -9.312788704   -8.360870378   8.851919239    81.13302146    36.70253238    20.43990877    -38.65040594   -37.45783867   -36.19673469   -24.97108458   -28.70872958   -23.63444669   11.5987866     12.26370269    -2.568719082   -5.21940921    1.686812853    -1.236891652   -4.384524206   4.603647929    17.33235767    15.88363092    11.18767829    8.363089323    -4.048509952   0.2962673532   18.88543744    24.70019194    6.943259983    1.940842137    4.272977053    8.167416034    10.89631686    11.69898517    9.343492286    -21.14785761   -9.313247572   7.398882593    9.863025673    -11.21543868   -14.65132523   -6.261603958   -16.27409752   -19.21851326   -21.19025861   -18.34335838   5.853132365    36.64893456    42.20282672    48.19987937    57.62311987    39.24923718    26.49386032    14.30858129    15.49225819    5.503013487    8.047667285    9.323202616    23.57238639    13.77209839    31.64533081    28.84325192    -2.446535269   -4.896171946   1.589448653    3.942479074    8.695600685    23.41714765    30.0100997     28.6811854     24.19010195    20.03503291    14.05178015    12.38841936    9.300531547    7.904890973    6.708353839    6.712299361    7.592247464    8.762527232    12.75658587    26.79559798    -2.905149593   -14.208395     2.885743074    10.37136077    20.07486748    18.12125998    12.72697278    3.665162962    1.609980626    5.314694063    -21.69067675   -38.10405346   -42.25911873   -38.03838631   -30.31496246   -22.93126626   -14.84900087   -8.444947271   -1.577771946   4.362864584    9.721465397    14.94612279    19.51214343    22.41076426    24.71816425    27.52107137    28.29574308    29.68411686    29.93511634    29.36047581    29.04266846    27.73197566    26.49714056    25.10829716    21.26084256    10.85105665    4.477685344    8.558374999    -5.095920794   -16.01625227   -19.88737668   -23.41102764   -26.02048682   -25.87101971   13.59714591    -2.450198106   -18.12642983   -15.27747487   -16.72582025   -16.14471144   -33.93847045   -43.04480203   -26.84780101   -11.59928738   -6.524718752   -9.544161296   -40.26499706   -38.71165275   -42.35062451   -41.88842773   -38.01337392   -35.27011788   -9.16216609    -15.64814824   -26.95541886   -12.04595041   -0.1774463271  0.1480716232   -18.34770949   -22.5930709    -32.97267663   -29.43645824   -19.74732304   15.53455106    -11.70546158   -15.38103005   -18.03051691   -16.00659022   -16.53126671   -24.40788161   -35.26999668   -39.86730604   -39.03013149   -40.38679863   -40.92457724   -42.84219912   -45.21213466   -45.99459803   -48.49765388   -49.73321545   -50.99199569   -51.72087169   -50.72462349   -49.4769596    -48.20670732   -45.8778123    -43.28623952   -40.20425615   -37.18762157   -34.53780069   -30.48627646   -27.40762913   -24.31058494   -20.71796182   -17.70514845   -14.53259356   -11.74999339   -9.128497416   -6.174417624   -3.685063444   -1.15934044    2.427832448    20.60150143    -15.69484996   -27.84842218   -40.60326375   9.260520859    15.47609532    12.78321803    5.445440197    -6.320912723   -6.360571414   -17.04048481   -37.25587255   -44.70469076   -41.33816564   -33.44584792   -25.499033     -17.53353505   -11.69071419   -7.256031311   -2.716815533   -1.18105957    0.3354092709   1.287706477    1.952278791    1.858032487    2.354957613    3.248349011    2.539364273    2.355352461    2.495253795    1.461883389    0.07073161324  -1.644829064   -5.209561211   -29.18392878   -25.82261789   -32.15793051   -22.85076663   35.74664085    28.65770778    13.44907054    27.83248586    58.96139255    101.7804091    97.03843761    78.56917859    39.11480859    36.11385416    33.753088      40.19373172    45.8376949     36.2607075     53.84700415    47.01315976    38.7687381     19.72125405    19.21132601    4.133542717    3.925475786    4.685914221    46.13444405    81.11324354    50.49924036    44.26585139    42.70179844    44.95295486    40.66750076    25.83056745    15.90289831    16.40126813    16.90592148    16.72407284    15.85106287    13.46008447    10.7784854     9.277272544    8.045215987    7.027873792    8.005695812    8.485556903    9.784234903    10.84622705    12.6643014     14.40545687    16.52745879    19.4865843     21.41083115    23.28239415    26.34832444    27.97857399    30.47302064    34.84445128    55.57718348    20.09330162    -1.12908382    -10.05032649   34.52858953    39.82006424    38.50000845    33.93300935    25.07871691    16.21547945    15.64534239    4.377442241    -22.94373357   -39.87143302   -46.59511428   -45.40582257   -40.60976843   -33.8888639    -29.00625421   -22.91282251   -18.09091924   -14.56872621   -11.63077591   -8.943243969   -6.865040961   -4.929560941   -3.929762437   -2.055240705   -0.581266353   0.7752683632   1.786497985    3.260577823    3.68473458     4.128275794    3.596388762    3.157977936    3.107142062    1.929631088    0.6906657821   0.7128028543   -0.2991308335  -1.803030171   -2.998749396   -4.124657898   -5.161878408   -7.38592162    -8.977421891   -12.76722777   -17.97459054   
19       NO_ID     480.5554483    207845.4769    0.01839111599  0.8701370621   0.05479227175  0.02002604994  0.02503512776  2.422072444    12.64109128    35.02944358    -12.45014661   -21.84140462   -20.6676903    -42.45587703   -9.221822884   -8.249005808   8.889773629    81.09656311    36.70501541    20.46093737    -38.62807553   -37.45647877   -36.17972157   -24.93964934   -28.69386701   -23.61046034   11.66020916    12.30223643    -2.557817332   -5.22294719    1.678437803    -1.224658522   -4.384231626   4.593992239    17.32601827    15.88836485    11.2013152     8.352056443    -4.086398152   0.2708910132   18.88333644    24.71523045    6.968750603    1.972419157    4.308062613    8.204511374    10.93454311    11.73781717    9.382598546    -21.11019267   -9.296182282   7.434298923    9.917543363    -11.20917335   -14.6645413    -6.265228688   -16.26686605   -19.21235074   -21.19885815   -18.35257678   5.876682165    36.67123193    42.21391667    48.20590008    57.63710338    39.27295615    26.4572812     14.26165644    15.4618891     5.478475507    8.003401635    9.307249336    23.57086021    13.79042468    31.58699133    28.79603748    -2.493022889   -4.951371336   1.523414673    3.884810943    8.672650945    23.41761442    30.0104405     28.67282901    24.17341706    20.01235755    14.02519155    12.35939096    9.270037187    7.873554373    6.676563879    6.680288991    7.560146584    8.730399122    12.7244537     26.77027398    -2.918451282   -14.2390609    2.830242694    10.4151086     20.12105748    18.17302133    12.7876104     3.731480352    1.666629611    5.345342593    -21.68297309   -38.10378567   -42.25547088   -38.02797787   -30.29814296   -22.90945343   -14.8236217    -8.417153951   -1.548426206   4.393137804    9.752219037    14.97703986    19.54300188    22.44141184    24.74850081    27.55103627    28.32530613    29.71327178    29.9638757     29.38886721    29.07073161    27.75975971    26.52470207    25.13569823    21.28814896    10.87833753    4.495588434    8.562090109    -5.077101466   -15.97962992   -19.85795376   -23.39400129   -26.0119748    -25.86673957   13.60118677    -2.425889905   -18.10324307   -15.26514892   -16.71013348   -16.11654135   -33.93368176   -43.08078822   -26.87543795   -11.61322419   -6.531098782   -9.547534936   -40.2702714    -38.73541711   -42.36403013   -41.87018656   -37.9914606    -35.25251135   -9.14539194    -15.61338376   -26.94788017   -12.1079911    -0.2400159471  0.09395493317  -18.41287388   -22.65798211   -33.00783774   -29.45659211   -19.81076816   15.45591432    -11.77727298   -15.45672373   -18.11349088   -16.0975626    -16.62346312   -24.48547421   -35.31903861   -39.88898167   -39.03652025   -40.38900022   -40.92842083   -42.84961434   -45.22317997   -46.00866611   -48.51400884   -49.75118868   -51.0110378    -51.74055085   -50.74460765   -49.49699681   -48.22660853   -45.89743762   -43.30548765   -40.22305638   -37.20592767   -34.55558636   -30.50353172   -27.42435764   -24.32680179   -20.73369173   -17.72042432   -14.54745531   -11.76448673   -9.142673036   -6.188330174   -3.698770774   -1.17290289    2.414352918    20.58802596    -15.68430927   -27.8583334    -40.62332641   9.265847619    15.49244904    12.80556103    5.477186737    -6.283908883   -6.334142866   -17.03654855   -37.26668839   -44.71636645   -41.34371858   -33.44425749   -25.49154584   -17.52176038   -11.67602065   -7.239450811   -2.699091433   -1.16271725    0.3540026109   1.306297627    1.970697201    1.876168477    2.372747043    3.265762401    2.556398983    2.372026711    2.511602135    1.477953199    0.08657988324  -1.629138234   -5.193958871   -29.16893159   -25.83110525   -32.14919333   -22.82842858   35.73911595    28.63065175    13.4330602     27.82713932    58.94065875    101.7456072    96.98808008    78.52611757    39.11673349    36.12776046    33.76465375    40.20357818    45.85716094    36.2907812     53.83215972    46.97451085    38.73198165    19.68616501    19.15580548    4.105774414    3.919919046    4.696758438    46.11617627    81.0756792     50.46223184    44.22493515    42.65266161    44.89569586    40.61378098    25.79975203    15.9002781     16.41391565    16.92040126    16.73430108    15.85592132    13.46034417    10.77531312    9.271721314    8.038112527    7.019832452    7.997161512    8.476846523    9.775570013    10.83775825    12.65612584    14.39763092    16.52000735    19.47950763    21.40411007    23.27599418    26.34219913    27.97266764    30.46727083    34.83879097    55.57152449    20.11186298    -1.132241269   -10.06564767   34.55312408    39.85317898    38.53716578    33.97705812    25.13012304    16.26869371    15.68821458    4.399822891    -22.94034924   -39.87730962   -46.60146383   -45.40825485   -40.60716074   -33.88162724   -28.99528752   -22.89905391   -18.07514909   -14.55159763   -11.61278989   -8.924785479   -6.846404181   -4.910970121   -3.911388027   -2.037211585   -0.563678963   0.7923432532   1.803010215    3.276493973    3.70003512     4.142952794    3.610444262    3.171422406    3.119993372    1.941913608    0.7024095021   0.7240428043   -0.2883552435  -1.792675751   -2.988769456   -4.115002998   -5.152496638   -7.37675904    -8.968423031   -12.758336     -17.96574842   
20       NO_ID     480.5308178    207840.6013    0.01839244993  0.8701207833   0.05481347046  0.02003054458  0.02504032075  2.422015627    12.64699606    35.0519273     -12.42768417   -21.82580759   -20.64714641   -42.44200399   -9.208073474   -8.229833408   8.898743049    81.09751932    36.7152388     20.47499294    -38.61376005   -37.44744785   -36.16675083   -24.9229877    -28.68136646   -23.59610863   11.6795606     12.31066311    -2.558856462   -5.22859169    1.671293233    -1.226854612   -4.389432936   4.586105049    17.31843717    15.88355964    11.1985247     8.342915043    -4.099944002   0.2642716232   18.88525309    24.72289244    6.979731763    1.985233007    4.321865163    8.218832004    10.9491227     11.75251684    9.397345456    -21.09580848   -9.285770652   7.451495473    9.939552637    -11.196769     -14.65652205   -6.254795378   -16.2536236    -19.20346785   -21.19360056   -18.34561195   5.892114705    36.68200332    42.21869089    48.20825559    57.6414617     39.27954109    26.44839531    14.2513378     15.45656934    5.474833157    7.995208145    9.309365736    23.57684411    13.80162215    31.58234633    28.79288588    -2.496036039   -4.956562316   1.515854343    3.880742195    8.677812675    23.4255728     30.01388443    28.67056386    24.16681744    20.00293201    14.01403373    12.34721265    9.257285147    7.860503193    6.663377219    6.667058621    7.546917334    8.717185702    12.71125273    26.75877955    -2.929409877   -14.25645894   2.806496594    10.41297589    20.11961045    18.1729727     12.78969543    3.734426382    1.665957776    5.337769143    -21.69411316   -38.11281241   -42.259709     -38.02748357   -30.29394846   -22.90263973   -14.81504989   -8.407450931   -1.538033776   4.403911514    9.763159797    14.98799932    19.55387838    22.45213745    24.75903239    27.56134939    28.33539072    29.72312898    29.97351553    29.39830679    29.07999379    27.76887181    26.53369493    25.14460532    21.29700554    10.88718049    4.502094634    8.566085379    -5.065368979   -15.96269201   -19.8461447    -23.38838917   -26.01033793   -25.867026     13.60079251    -2.42187485    -18.09962831   -15.26353073   -16.70766977   -16.11107951   -33.93571017   -43.09356565   -26.88449504   -11.61775427   -6.533261342   -9.548782206   -40.27199693   -38.74135829   -42.36323314   -41.85891353   -37.98133542   -35.24530231   -9.13866735    -15.60215007   -26.94407446   -12.12272473   -0.2551693871  0.08088437317  -18.42867923   -22.67039603   -33.01021807   -29.45516982   -19.81800442   15.44307994    -11.78897866   -15.46940527   -18.12796216   -16.11372869   -16.63886818   -24.4953509    -35.32041325   -39.88422026   -39.03053297   -40.38517124   -40.9278781    -42.85219771   -45.22828471   -46.0156464    -48.52231448   -49.76038843   -51.02080538   -51.75064305   -50.75484424   -49.50724475   -48.23677012   -45.9074419    -43.31528411   -40.23261039   -37.21521719   -34.56459943   -30.51226465   -27.43281351   -24.33498945   -20.74162478   -17.72812046   -14.55493572   -11.77177547   -9.149796656   -6.195317184   -3.705651284   -1.17970824    2.407590558    20.58126572    -15.68620442   -27.87031707   -40.63786504   9.256292799    15.48552291    12.80013572    5.473959757    -6.286738583   -6.34150337    -17.05036388   -37.28208889   -44.72817888   -41.35037377   -33.44639737   -25.49035494   -17.5182947    -11.67107207   -7.233578781   -2.692683083   -1.15603868    0.3607693809   1.313029377    1.977312541    1.882616347    2.378998903    3.271806711    2.562237353    2.377670941    2.517071985    1.483274719    0.09178378324  -1.624017724   -5.188885181   -29.16401021   -25.8308987    -32.14052358   -22.81691948   35.738532      28.62634534    13.43387468    27.82892158    58.93624838    101.7354828    96.97423696    78.51769751    39.12293177    36.13494412    33.76919585    40.20694655    45.86293154    36.2976062     53.82248669    46.95782392    38.71678608    19.67173428    19.13686963    4.099851403    3.921784926    4.702452137    46.10968519    81.06237522    50.4491298     44.21085105    42.6365771     44.87815743    40.59918859    25.79428891    15.90417032    16.42135995    16.92651497    16.73737302    15.85605273    13.45819031    10.77154856    9.266891294    8.032622687    7.013974542    7.991141922    8.470809373    9.769614043    10.83194882    12.65050339    14.39221692    16.51480861    19.47451951    21.39931883    23.27137893    26.33773332    27.96832038    30.46300804    34.83457638    55.56731062    20.11246662    -1.142083851   -10.07855209   34.54826095    39.85034995    38.53535248    33.97693189    25.13153693    16.26959995    15.68495145    4.390412541    -22.95362914   -39.89026032   -46.61127676   -45.41412286   -40.60942705   -33.88101656   -28.9925313    -22.89476582   -18.06980772   -14.54556512   -11.60633726   -8.918115109   -6.839667421   -4.904280361   -3.904830277   -2.030849315   -0.557559123   0.7981866932   1.808553545    3.281721823    3.704939       4.147529924    3.614696792    3.175356666    3.123619302    1.945244378    0.7054610721   0.7268336243   -0.2858045535  -1.790342681   -2.986629766   -4.113031068   -5.150665608   -7.37504106    -8.966789471   -12.75675764   -17.96419567   
21       NO_ID     480.5288113    207840.4883    0.01839257273  0.8701190597   0.05481165519  0.02003087762  0.02504067058  2.422014311    12.64713298    35.05376006    -12.42586122   -21.82420565   -20.64716633   -42.44332586   -9.209402834   -8.231007588   8.898859689    81.09934303    36.71714364    20.47682311    -38.61193697   -37.44574002   -36.16495168   -24.92109216   -28.67956422   -23.59430473   11.68078242    12.31074885    -2.559431672   -5.2294459     1.670354093    -1.227733972   -4.390381936   4.585058899    17.31729749    15.88248187    11.19744021    8.341593803    -4.101031002   0.2639841832   18.88563687    24.72366641    6.980706253    1.986302887    4.322975123    8.219954104    10.95024431    11.75363398    9.398458966    -21.09470337   -9.284505342   7.453420893    9.941590494    -11.19451852   -14.65426485   -6.252482228   -16.25123367   -19.20201042   -21.19220885   -18.34378292   5.894317985    36.68336698    42.21934702    48.20864822    57.64190043    39.27997248    26.44829251    14.25131283    15.45677988    5.475114597    7.995468605    9.310564566    23.57822414    13.80316124    31.58408179    28.79434872    -2.494579129   -4.955152886   1.517282513    3.882551901    8.680018885    23.4273492     30.01476178    28.67066786    24.16640902    20.00221475    14.01313878    12.34622011    9.256243027    7.859439793    6.662308479    6.665992621    7.545857064    8.716130902    12.71020119    26.75776617    -2.930927599   -14.25860015   2.804191274    10.41062941    20.11729762    18.17069151    12.78744331    3.732076232    1.663263399    5.334778513    -21.69684448   -38.11479644   -42.26086902   -38.02797721   -30.29397044   -22.90234844   -14.81455861   -8.406837221   -1.537350126   4.404629514    9.763887997    14.98872133    19.55458322    22.452818      24.75968434    27.56197053    28.33598046    29.72368803    29.97404558    29.39881035    29.08047403    27.76933241    26.53413997    25.14503919    21.29743284    10.88760602    4.502470704    8.566618239    -5.063821918   -15.96075337   -19.84487324   -23.38781034   -26.01018447   -25.86707424   13.60073304    -2.421979713   -18.09976807   -15.26357009   -16.70768961   -16.11106052   -33.93623397   -43.09457544   -26.88518952   -11.61816563   -6.533538962   -9.549011806   -40.27223759   -38.74160872   -42.36247357   -41.85730289   -37.98006869   -35.24442367   -9.13784893    -15.60123221   -26.94349056   -12.1229004    -0.2554820771  0.08059122317  -18.42902663   -22.66998232   -33.00901367   -29.4538737    -19.81653732   15.44399628    -11.78815495   -15.46860393   -18.12719376   -16.11293528   -16.63783777   -24.49379885   -35.31834669   -39.8820811    -39.02880535   -40.38406601   -40.92737241   -42.85217453   -45.22861749   -46.01622925   -48.52306671   -49.76125081   -51.021735     -51.75160888   -50.75582383   -49.50822183   -48.23773294   -45.90838205   -43.31619571   -40.23348948   -37.21606135   -34.56540745   -30.5130363    -27.4335494    -24.33569085   -20.74229354   -17.72875892   -14.55554665   -11.77236198   -9.150362146   -6.195865304   -3.706185864   -1.18023328    2.407070988    20.58074641    -15.68684856   -27.87222974   -40.63983693   9.254213539    15.48348557    12.79813184    5.471972997    -6.288905193   -6.344172679   -17.05340595   -37.28483457   -44.73016614   -41.35158043   -33.44699656   -25.4905334    -17.51819778   -11.67080187   -7.233204671   -2.692251803   -1.15558173    0.3612308409   1.313481237    1.977745671    1.883025207    2.379380593    3.272160331    2.562563533    2.377971501    2.517349705    1.483533089    0.09202687324  -1.623785454   -5.188658971   -29.16378753   -25.83054388   -32.13911192   -22.81555811   35.73869766    28.62666705    13.43480523    27.82953155    58.93624754    101.7349036    96.97361092    78.51793444    39.12427172    36.13600423    33.76983441    40.20742486    45.86346174    36.29783191    53.8212269     46.95609978    38.71524727    19.67027067    19.1354291     4.099949648    3.922542436    4.703238076    46.10918944    81.06127442    50.44803419    44.20973297    42.63542633    44.87709142    40.59860832    25.79462117    15.90522948    16.42251384    16.92734002    16.73777628    15.85609855    13.45797614    10.77115985    9.266392694    8.032060567    7.013381422    7.990540382    8.470214873    9.769036963    10.83139579    12.64997829    14.39172149    16.51434297    19.4740825     21.39890824    23.27099175    26.33736591    27.96796857    30.46266732    34.83424199    55.56697631    20.11198626    -1.143848783   -10.08038805   34.54627883    39.84839743    38.53342314    33.97503217    25.12960996    16.26746348    15.68238438    4.387456531    -22.95656588   -39.8927363    -46.61309608   -45.41530954   -40.61009923   -33.88130421   -28.99254474   -22.89459015   -18.06950601   -14.54518351   -11.60590942   -8.917665709   -6.839214651   -4.903837691   -3.904407697   -2.030454205   -0.557196863   0.7985122532   1.808839765    3.281967053    3.70514242     4.147691394    3.614816732    3.175435996    3.123659392    1.945246978    0.7054282621   0.7267677743   -0.2859007835  -1.790466421   -2.986777946   -4.113200428   -5.150852758   -7.37524247    -8.967001541   -12.75697667   -17.96441793   
22       NO_ID     480.5288219    207840.5287    0.01839257241  0.8701190312   0.05481124963  0.02003087234  0.02504065932  2.422014782    12.64708403    35.05375018    -12.42587189   -21.82416566   -20.64735693   -42.44360651   -9.209683184   -8.231329978   8.898778729    81.09954061    36.71726182    20.47689577    -38.61186763   -37.44562424   -36.16486856   -24.92103866   -28.67947554   -23.59423003   11.68073505    12.31067446    -2.559489722   -5.22949087    1.670314073    -1.227823182   -4.390446216   4.585013839    17.31724003    15.88240104    11.19733457    8.341524313    -4.101024142   0.2640181732   18.88566468    24.72368252    6.980712733    1.986302377    4.322969633    8.219945084    10.95023284    11.75362094    9.398445106    -21.09471422   -9.284451882   7.453478823    9.941608589    -11.1943872    -14.65408334   -6.252320728   -16.2510949    -19.20193029   -21.19209635   -18.34363438   5.894418565    36.68341352    42.21937122    48.20866614    57.64190169    39.27994477    26.4483607     14.25141127    15.45685828    5.475184997    7.995587445    9.310686706    23.57832595    13.80322304    31.58432069    28.79454633    -2.494383489   -4.954938816   1.517525673    3.882805187    8.680222105    23.42747125    30.01482418    28.67069832    24.16642409    20.0022227     14.01314364    12.34622387    9.256246707    7.859443853    6.662313119    6.665997871    7.545862834    8.716137052    12.71020755    26.7577582     -2.931003419   -14.25867902   2.804163564    10.41038551    20.11705049    18.17043269    12.78716422    3.731774972    1.662958369    5.334510743    -21.69704396   -38.11492976   -42.26095537   -38.02803464   -30.29401105   -22.9023795    -14.81458439   -8.406860251   -1.537371936   4.404607994    9.763866177    14.98869883    19.55455983    22.45279357    24.75965882    27.5619439     28.33595276    29.7236593     29.97401589    29.39877981    29.08044274    27.76930049    26.53410756    25.14500643    21.29739988    10.887573      4.502457634    8.566652249    -5.063751337   -15.96069703   -19.84484553   -23.38780091   -26.01018417   -25.86707783   13.60072924    -2.422040461   -18.09982903   -15.2635963    -16.70772284   -16.11112285   -33.9362845    -43.09456642   -26.88517673   -11.61816398   -6.533545022   -9.549021266   -40.27224309   -38.74156846   -42.36238468   -41.85722794   -37.98002499   -35.24439606   -9.13782343    -15.60124516   -26.94347231   -12.1227788    -0.2553672571  0.08068901317  -18.42890503   -22.66980384   -33.00884798   -29.45373924   -19.81630413   15.444227      -11.78794523   -15.46838608   -18.12696002   -16.11267947   -16.63756073   -24.49351766   -35.31809398   -39.88188415   -39.02866936   -40.38398013   -40.92732214   -42.8521479    -45.22860609   -46.0162275    -48.523071     -49.76125875   -51.02174502   -51.75161992   -50.75583517   -49.50823297   -48.23774354   -45.90839187   -43.31620458   -40.23349731   -37.21606808   -34.56541306   -30.51304079   -27.43355279   -24.33569319   -20.7422949    -17.72875936   -14.55554627   -11.77236086   -9.150360406   -6.195863044   -3.706183204   -1.18023034    2.407074088    20.58074952    -15.68691482   -27.8723378    -40.6399238    9.254073979    15.48332471    12.79795838    5.471777117    -6.289127833   -6.344407535   -17.05361661   -37.28499343   -44.73027355   -41.35165047   -33.4470428    -25.49056527   -17.51822117   -11.67082039   -7.233220551   -2.692266423   -1.15559597    0.3612164009   1.313466257    1.977729931    1.883008587    2.379363043    3.272141851    2.562544163    2.377951321    2.517328805    1.483511579    0.09200489324  -1.623807774   -5.188681481   -29.16380877   -25.83049637   -32.13902938   -22.81551404   35.73872536    28.62675547    13.43491147    27.82958589    58.93629404    101.7349422    96.97368518    78.51805482    39.12436555    36.13605275    33.76986039    40.20744414    45.86346062    36.29778053    53.82117429    46.9560697     38.71522539    19.67025007    19.13546158    4.100026795    3.922613956    4.703270148    46.10919627    81.06128367    50.44804251    44.20974947    42.6354611     44.87715288    40.5986969     25.79472065    15.90531449    16.42257107    16.92737154    16.73778961    15.85610041    13.4579712     10.77115109    9.266381984    8.032049087    7.013369932    7.990529362    8.470204623    9.769027663    10.83138755    12.64997114    14.39171543    16.51433796    19.47407846    21.39890508    23.27098936    26.33736416    27.96796733    30.46266643    34.83424129    55.56697562    20.11191409    -1.143961092   -10.08047497   34.54610396    39.84820572    38.53322297    33.97481684    25.12937404    16.26720711    15.68212048    4.387211281    -22.95676827   -39.89288821   -46.61320414   -45.41538506   -40.61015239   -33.88134257   -28.9925735    -22.89461277   -18.06952482   -14.54520007   -11.60592481   -8.917680679   -6.839229731   -4.903853251   -3.904423997   -2.030471445   -0.557215183   0.7984927532   1.808819035    3.281945053    3.70511914     4.147666834    3.614790922    3.175408966    3.123631192    1.945217668    0.7053978921   0.7267364343   -0.2859330335  -1.790499481   -2.986811716   -4.113234828   -5.150887678   -7.37527781    -8.967037191   -12.75701253   -17.96445388   
23       NO_ID     480.5288329    207840.5316    0.0183925721   0.8701190356   0.05481122873  0.02003086945  0.02504065622  2.422014816    12.64708049    35.05374044    -12.42588167   -21.82417151   -20.64737104   -42.44361994   -9.209696554   -8.231346498   8.898773059    81.09954548    36.71726057    20.47689164    -38.61187196   -37.44562529   -36.16487197   -24.92104416   -28.67947852   -23.59423387   11.68072667    12.31066986    -2.559490172   -5.22948917    1.670316503    -1.227824002   -4.390445246   4.585016309    17.31724197    15.88240131    11.19733334    8.341526043    -4.101019232   0.2640209432   18.88566399    24.72367929    6.980707943    1.986296637    4.322963313    8.219938414    10.95022595    11.75361392    9.398438026    -21.09472108   -9.284455292   7.453473683    9.941600573    -11.194388     -14.65408104   -6.252319878   -16.25109569   -19.20193143   -21.19209523   -18.34363259   5.894416355    36.68341144    42.21937057    48.20866616    57.64190051    39.27994191    26.44836587    14.25141753    15.45686202    5.475187867    7.995593395    9.310689536    23.57832696    13.80322104    31.58432965    28.7945532     -2.494376739   -4.954930736   1.517535473    3.882814222    8.680226655    23.42747249    30.0148252     28.67070035    24.16642717    20.00222658    14.01314809    12.3462287     9.256251787    7.859449103    6.662318489    6.666003321    7.545868344    8.716142592    12.7102131     26.75776273    -2.931001327   -14.25867504   2.804171284    10.41037872    20.11704337    18.17042473    12.78715489    3.731764642    1.662949091    5.334504913    -21.69704645   -38.11493088   -42.26095661   -38.02803657   -30.29401372   -22.9023828    -14.81458817   -8.406864381   -1.537376316   4.404603414    9.763861467    14.98869403    19.55455495    22.45278865    24.75965386    27.56193892    28.33594776    29.72365429    29.97401088    29.39877479    29.08043772    27.76929547    26.53410254    25.14500141    21.29739486    10.88756799    4.502454034    8.566650999    -5.063754017   -15.96070201   -19.84484984   -23.38780378   -26.01018602   -25.86707915   13.60072795    -2.422044997   -18.09983343   -15.26359892   -16.70772596   -16.11112789   -33.93628642   -43.09456222   -26.88517328   -11.6181623    -6.533544372   -9.549021046   -40.27224258   -38.74156507   -42.36238212   -41.85722976   -37.98002778   -35.24439854   -9.13782584    -15.6012503    -26.94347374   -12.12277019   -0.2553584771  0.08069660317  -18.42889577   -22.66979398   -33.00884209   -29.45373562   -19.8162941    15.44423908    -11.78793421   -15.46837448   -18.12694731   -16.11266549   -16.63754636   -24.49350511   -35.31808541   -39.88187975   -39.02866765   -40.38397956   -40.92732177   -42.85214732   -45.2286052    -46.0162263    -48.52306952   -49.76125706   -51.02174316   -51.75161793   -50.75583308   -49.5082308    -48.23774131   -45.9083896    -43.31620229   -40.233495     -37.21606576   -34.56541073   -30.51303846   -27.43355046   -24.33569086   -20.74229257   -17.72875704   -14.55554395   -11.77235855   -9.150358096   -6.195860744   -3.706180904   -1.18022804    2.407076388    20.58075182    -15.68691635   -27.87233697   -40.63992144   9.254072539    15.48332162    12.79795438    5.471771677    -6.289134223   -6.344412635   -17.05361837   -37.28499247   -44.73027169   -41.35164884   -33.44704176   -25.49056481   -17.51822118   -11.67082075   -7.233221171   -2.692267243   -1.15559692    0.3612153609   1.313465147    1.977728771    1.883007397    2.379361833    3.272140621    2.562542933    2.377950081    2.517327555    1.483510339    0.09200364324  -1.623809024   -5.188682731   -29.16380993   -25.83049378   -32.13902881   -22.81551565   35.73872734    28.62676059    13.43491526    27.82958772    58.93629775    101.7349476    96.97369302    78.51806212    39.12436635    36.13605114    33.76985866    40.20744252    45.86345754    36.29777556    53.82117531    46.95607445    38.71523021    19.67025474    19.13546944    4.10003143     3.922615506    4.703269169    46.10919882    81.06128897    50.44804778    44.20975532    42.63546821    44.87716131    40.59870514    25.79472594    15.90531577    16.42256981    16.92736956    16.73778784    15.85609916    13.45797045    10.77115075    9.266381964    8.032049307    7.013370332    7.990529882    8.470205233    9.769028343    10.83138828    12.6499719     14.39171621    16.51433876    19.47407927    21.39890589    23.27099018    26.33736498    27.96796815    30.46266725    34.83424211    55.56697644    20.11191105    -1.143961527   -10.08047357   34.54609948    39.84819996    38.5332166     33.97480942    25.12936546    16.2671981     15.68211278    4.387206581    -22.95676983   -39.89288779   -46.61320299   -45.41538392   -40.61015159   -33.88134217   -28.99257347   -22.89461306   -18.06952535   -14.54520079   -11.60592568   -8.917681659   -6.839230791   -4.903854381   -3.904425167   -2.030472655   -0.557216413   0.7984915132   1.808817785    3.281943803    3.7051179      4.147665594    3.614789692    3.175407746    3.123629972    1.945216458    0.7053966921   0.7267352443   -0.2859342135  -1.790500651   -2.986812876   -4.113235988   -5.150888828   -7.37527896    -8.967038331   -12.75701367   -17.96445502   
