Run #, fy, E, b, cR1, cR2, a1, a3, stress_1, stress_2, stress_3, stress_4, stress_5, stress_6, stress_7, stress_8, stress_9, stress_10, stress_11, stress_12, stress_13, stress_14, stress_15, stress_16, stress_17, stress_18, stress_19, stress_20, stress_21, stress_22, stress_23, stress_24, stress_25, stress_26, stress_27, stress_28, stress_29, stress_30, stress_31, stress_32, stress_33, stress_34, stress_35, stress_36, stress_37, stress_38, stress_39, stress_40, stress_41, stress_42, stress_43, stress_44, stress_45, stress_46, stress_47, stress_48, stress_49, stress_50, stress_51, stress_52, stress_53, stress_54, stress_55, stress_56, stress_57, stress_58, stress_59, stress_60, stress_61, stress_62, stress_63, stress_64, stress_65, stress_66, stress_67, stress_68, stress_69, stress_70, stress_71, stress_72, stress_73, stress_74, stress_75, stress_76, stress_77, stress_78, stress_79, stress_80, stress_81, stress_82, stress_83, stress_84, stress_85, stress_86, stress_87, stress_88, stress_89, stress_90, stress_91, stress_92, stress_93, stress_94, stress_95, stress_96, stress_97, stress_98, stress_99, stress_100, stress_101, stress_102, stress_103, stress_104, stress_105, stress_106, stress_107, stress_108, stress_109, stress_110, stress_111, stress_112, stress_113, stress_114, stress_115, stress_116, stress_117, stress_118, stress_119, stress_120, stress_121, stress_122, stress_123, stress_124, stress_125, stress_126, stress_127, stress_128, stress_129, stress_130, stress_131, stress_132, stress_133, stress_134, stress_135, stress_136, stress_137, stress_138, stress_139, stress_140, stress_141, stress_142, stress_143, stress_144, stress_145, stress_146, stress_147, stress_148, stress_149, stress_150, stress_151, stress_152, stress_153, stress_154, stress_155, stress_156, stress_157, stress_158, stress_159, stress_160, stress_161, stress_162, stress_163, stress_164, stress_165, stress_166, stress_167, stress_168, stress_169, stress_170, stress_171, stress_172, stress_173, stress_174, stress_175, stress_176, stress_177, stress_178, stress_179, stress_180, stress_181, stress_182, stress_183, stress_184, stress_185, stress_186, stress_187, stress_188, stress_189, stress_190, stress_191, stress_192, stress_193, stress_194, stress_195, stress_196, stress_197, stress_198, stress_199, stress_200, stress_201, stress_202, stress_203, stress_204, stress_205, stress_206, stress_207, stress_208, stress_209, stress_210, stress_211, stress_212, stress_213, stress_214, stress_215, stress_216, stress_217, stress_218, stress_219, stress_220, stress_221, stress_222, stress_223, stress_224, stress_225, stress_226, stress_227, stress_228, stress_229, stress_230, stress_231, stress_232, stress_233, stress_234, stress_235, stress_236, stress_237, stress_238, stress_239, stress_240, stress_241, stress_242, stress_243, stress_244, stress_245, stress_246, stress_247, stress_248, stress_249, stress_250, stress_251, stress_252, stress_253, stress_254, stress_255, stress_256, stress_257, stress_258, stress_259, stress_260, stress_261, stress_262, stress_263, stress_264, stress_265, stress_266, stress_267, stress_268, stress_269, stress_270, stress_271, stress_272, stress_273, stress_274, stress_275, stress_276, stress_277, stress_278, stress_279, stress_280, stress_281, stress_282, stress_283, stress_284, stress_285, stress_286, stress_287, stress_288, stress_289, stress_290, stress_291, stress_292, stress_293, stress_294, stress_295, stress_296, stress_297, stress_298, stress_299, stress_300, stress_301, stress_302, stress_303, stress_304, stress_305, stress_306, stress_307, stress_308, stress_309, stress_310, stress_311, stress_312, stress_313, stress_314, stress_315, stress_316, stress_317, stress_318, stress_319, stress_320, stress_321, stress_322, stress_323, stress_324, stress_325, stress_326, stress_327, stress_328, stress_329, stress_330, stress_331, stress_332, stress_333, stress_334, stress_335, stress_336, stress_337, stress_338, stress_339, stress_340, stress_341, stress_342
1, 500, 200000, 0.5, 1, 1, 0.25, 0.25, 2.33065, 22.1421, -124.89, -211.537, -232.427, -175.294, -13.9155, 21.4562, 31.5441, 21.7818, -163.7, -402.888, -548.875, -620.137, -627.51, -619.893, -625.141, -635.787, -615.513, -403.982, -114.905, 72.6287, 207.984, 273.802, 278.717, 270.721, 274.955, 289.402, 292.501, 290.613, 247.084, 68.4155, -192.359, -413.814, -632.211, -874.335, -1096.27, -1293.34, -1462.23, -1597.99, -1695.44, -1751.58, -1782.66, -1774.87, -1696.59, -1686.33, -1716.48, -1726.58, -1714.29, -1719.09, -1801.64, -1809.63, -1793.96, -1625.46, -1347.99, -1141.95, -1048.27, -1035.59, -1050.59, -1175.49, -1483.64, -1706.37, -1775.68, -1780.68, -1714.19, -1639.06, -1639.63, -1709.69, -1849.18, -1882.8, -1888.8, -1886.31, -1868.67, -1778.61, -1576.66, -1314.82, -1041.82, -776.547, -520.898, -278.091, -43.9578, 172.357, 369.782, 542.5, 687.402, 800.64, 878.837, 922.525, 939.343, 903.659, 828.394, 834.727, 899.689, 916.241, 916.559, 914.887, 907.427, 891.149, 838.795, 694.134, 504.042, 290.99, 69.1261, -156.562, -385.773, -615.999, -848.894, -1081.54, -1314.24, -1545.29, -1772.62, -1994.98, -2211.51, -2419.26, -2615.27, -2800.24, -2969.79, -3124.1, -3261.39, -3379.26, -3477.84, -3555.14, -3610.64, -3646.15, -3665.06, -3675.98, -3685.8, -3682.14, -3559.48, -3337.79, -3107.59, -2923.63, -2813.1, -2766.9, -2776.11, -2792.96, -2794.26, -2794.34, -2788.55, -2838.22, -3055.58, -3354.29, -3570.83, -3720, -3801.93, -3833.44, -3843.25, -3838.59, -3709.6, -3505.8, -3357.24, -3307.98, -3306.82, -3339.52, -3504.4, -3674.01, -3751.22, -3774.92, -3782.21, -3743.34, -3733.56, -3749.19, -3800.91, -3845.1, -3850.42, -3856.79, -3860.75, -3865.94, -3864.6, -3831.8, -3742.51, -3597.46, -3415.38, -3205.91, -2980.71, -2745, -2500.57, -2253.18, -2001.58, -1748.43, -1494.37, -1239.38, -986.099, -735.945, -489.101, -247.61, -12.5042, 214.408, 431.573, 639.543, 834.768, 1017.09, 1185.95, 1339.26, 1476.85, 1597.35, 1700.26, 1785.47, 1851.67, 1898.95, 1928.07, 1947.49, 1939.48, 1920.44, 1903.56, 1951.35, 1961.72, 1962.13, 1963.05, 1963.65, 1964.13, 1910.33, 1781.59, 1605.99, 1400.06, 1173.38, 931.682, 681.186, 423.914, 163.719, -95.2364, -353.619, -606.101, -850.927, -1085.58, -1308.33, -1515.72, -1705.96, -1879.16, -2031.51, -2161.7, -2269.88, -2354.19, -2413.76, -2449.48, -2473.7, -2487.56, -2476.93, -2462.85, -2469.72, -2489.77, -2494.05, -2481.94, -2486.15, -2533.53, -2546.36, -2560.74, -2469.04, -2238.51, -2044.63, -1956.39, -1946.82, -1955.82, -2036.8, -2256.92, -2437.31, -2504.56, -2516.65, -2497.89, -2434.07, -2426.72, -2444.05, -2565.13, -2638.86, -2646.73, -2652.33, -2655.84, -2659.11, -2642.34, -2562.11, -2405.76, -2198.43, -1959.95, -1704.29, -1440.8, -1173.38, -903.827, -635.448, -370.342, -108.647, 145.239, 390.714, 624.781, 846.523, 1053.21, 1243.52, 1416.2, 1567.8, 1697.93, 1806.61, 1890.2, 1950.23, 1987.13, 2008.34, 2001.18, 1971.31, 1957.44, 2007.88, 2017.88, 2018.48, 2018.64, 2018.23, 2018.69, 2017.48, 1977.59, 1878.86, 1745.51, 1585.23, 1405.85, 1211.21, 1005.18, 787.523, 563.686, 332.842, 96.2441, -144.3, -387.47, -632.665, -878.467, -1124.72, -1368.62, -1610.48, -1849.01, -2083.43, -2311.94, -2535.04, -2750.71, -2958.94, -3157.77, -3345.98, -3524.23, -3690.65, -3843.13, -3983.27, -4109.89, -4221.56, -4318.04, -4398.83, -4464.84, -4513.95, -4548.76, -4568.34
2, 499.735, 199979, 0.499945, 1.00001, 0.999832, 0.24968, 0.250005, 2.3304, 22.1681, -124.643, -211.252, -232.176, -175.094, -13.7678, 21.6026, 31.7163, 21.998, -163.42, -402.539, -548.495, -619.755, -627.162, -619.528, -624.751, -635.417, -615.181, -403.72, -114.916, 72.4774, 207.791, 273.595, 278.544, 270.535, 274.754, 289.198, 292.309, 290.444, 246.947, 68.3484, -192.189, -413.443, -631.768, -873.838, -1095.73, -1292.74, -1461.6, -1597.33, -1694.76, -1750.88, -1781.96, -1774.22, -1696.01, -1685.73, -1715.85, -1725.98, -1713.68, -1718.46, -1800.99, -1808.99, -1793.37, -1624.99, -1347.69, -1141.76, -1048.12, -1035.44, -1050.4, -1175.25, -1483.29, -1705.71, -1774.94, -1779.97, -1713.55, -1638.47, -1639.01, -1709.01, -1848.36, -1881.98, -1887.99, -1885.52, -1867.92, -1777.93, -1576.1, -1314.44, -1041.62, -776.467, -520.91, -278.172, -44.0966, 172.169, 369.549, 542.229, 687.1, 800.314, 878.494, 922.173, 938.999, 903.39, 828.211, 834.514, 899.433, 915.983, 916.307, 914.646, 907.209, 890.97, 838.683, 694.122, 504.152, 291.231, 69.4873, -156.098, -385.223, -615.377, -848.207, -1080.79, -1313.44, -1544.43, -1771.72, -1994.03, -2210.52, -2418.22, -2614.18, -2799.11, -2968.63, -3122.9, -3260.17, -3378, -3476.57, -3553.85, -3609.34, -3644.84, -3663.75, -3674.68, -3684.56, -3681.03, -3558.54, -3337.01, -3106.93, -2923.06, -2812.57, -2766.38, -2775.55, -2792.39, -2793.72, -2793.8, -2787.99, -2837.63, -3054.9, -3353.23, -3569.48, -3718.57, -3800.48, -3831.99, -3841.84, -3837.3, -3708.49, -3504.84, -3356.38, -3307.14, -3305.95, -3338.61, -3503.35, -3672.65, -3749.79, -3773.52, -3780.92, -3742.15, -3732.35, -3747.92, -3799.46, -3843.64, -3848.97, -3855.35, -3859.33, -3864.56, -3863.29, -3830.58, -3741.39, -3596.45, -3414.5, -3205.14, -2980.06, -2744.46, -2500.13, -2252.84, -2001.32, -1748.25, -1494.27, -1239.35, -986.136, -736.046, -489.262, -247.829, -12.7774, 214.083, 431.199, 639.122, 834.304, 1016.59, 1185.41, 1338.69, 1476.24, 1596.72, 1699.61, 1784.8, 1850.99, 1898.26, 1927.37, 1946.79, 1938.89, 1920.02, 1903.14, 1950.88, 1961.25, 1961.66, 1962.62, 1963.27, 1963.83, 1910.13, 1781.52, 1606.04, 1400.24, 1173.68, 932.091, 681.702, 424.529, 164.427, -94.4426, -352.745, -605.153, -849.91, -1084.49, -1307.19, -1514.52, -1704.72, -1877.88, -2030.19, -2160.35, -2268.5, -2352.8, -2412.35, -2448.06, -2472.28, -2486.22, -2475.73, -2461.63, -2468.45, -2488.57, -2492.93, -2480.78, -2484.96, -2532.29, -2545.16, -2559.64, -2468.11, -2237.77, -2044.01, -1955.82, -1946.23, -1955.19, -2036.07, -2255.99, -2436.23, -2503.45, -2515.58, -2496.97, -2433.22, -2425.86, -2443.09, -2563.99, -2637.69, -2645.56, -2651.17, -2654.72, -2658.04, -2641.35, -2561.22, -2404.99, -2197.8, -1959.45, -1703.92, -1440.55, -1173.24, -903.784, -635.495, -370.471, -108.851, 144.967, 390.379, 624.388, 846.077, 1052.72, 1242.98, 1415.62, 1567.19, 1697.29, 1805.95, 1889.52, 1949.53, 1986.43, 2007.64, 2000.59, 1970.89, 1957.01, 2007.41, 2017.4, 2018.01, 2018.18, 2017.8, 2018.32, 2017.17, 1977.36, 1878.72, 1745.48, 1585.3, 1406.02, 1211.49, 1005.56, 787.999, 564.253, 333.496, 96.9801, -143.486, -386.58, -631.702, -877.435, -1123.62, -1367.46, -1609.26, -1847.73, -2082.09, -2310.54, -2533.59, -2749.21, -2957.39, -3156.17, -3344.34, -3522.55, -3688.93, -3841.38, -3981.49, -4108.08, -4219.72, -4316.18, -4396.95, -4462.95, -4512.05, -4546.85, -4566.43
3, 498.941, 199914, 0.49978, 1.00003, 0.999329, 0.248722, 0.25002, 2.32965, 22.2461, -123.902, -210.396, -231.423, -174.494, -13.3255, 22.0408, 32.232, 22.6461, -162.583, -401.493, -547.355, -618.607, -626.118, -618.431, -623.581, -634.308, -614.185, -402.935, -114.954, 72.0232, 207.213, 272.972, 278.026, 269.977, 274.151, 288.583, 291.733, 289.936, 246.537, 68.1483, -191.677, -412.333, -630.436, -872.347, -1094.09, -1290.97, -1459.71, -1595.34, -1692.7, -1748.79, -1779.88, -1772.28, -1694.29, -1683.95, -1713.95, -1724.18, -1711.85, -1716.58, -1799.03, -1807.09, -1791.62, -1623.6, -1346.79, -1141.19, -1047.67, -1034.96, -1049.83, -1174.53, -1482.23, -1703.73, -1772.72, -1777.84, -1711.64, -1636.68, -1637.14, -1706.97, -1845.91, -1879.52, -1885.57, -1883.16, -1865.65, -1775.88, -1574.44, -1313.31, -1040.99, -776.226, -520.944, -278.416, -44.5131, 171.602, 368.851, 541.418, 686.194, 799.334, 877.464, 921.118, 937.967, 902.584, 827.664, 833.877, 898.663, 915.208, 915.551, 913.927, 906.555, 890.434, 838.348, 694.085, 504.487, 291.955, 70.572, -154.705, -383.573, -613.509, -846.148, -1078.56, -1311.04, -1541.88, -1769.01, -1991.17, -2207.52, -2415.09, -2610.92, -2795.73, -2965.13, -3119.31, -3256.48, -3374.24, -3472.74, -3549.98, -3605.43, -3640.91, -3659.81, -3670.79, -3680.85, -3677.7, -3555.71, -3334.65, -3104.95, -2921.35, -2811, -2764.81, -2773.86, -2790.7, -2792.11, -2792.18, -2786.32, -2835.85, -3052.86, -3350.03, -3565.42, -3714.28, -3796.12, -3827.63, -3837.62, -3833.45, -3705.17, -3501.99, -3353.81, -3304.61, -3303.35, -3335.88, -3500.21, -3668.57, -3745.52, -3769.29, -3777.04, -3738.56, -3728.72, -3744.11, -3795.11, -3839.26, -3844.6, -3851.02, -3855.08, -3860.44, -3859.37, -3826.91, -3738.03, -3593.44, -3411.84, -3202.85, -2978.11, -2742.84, -2498.81, -2251.8, -2000.55, -1747.72, -1493.96, -1239.26, -986.244, -736.345, -489.744, -248.483, -13.5964, 213.108, 430.076, 637.861, 832.914, 1015.08, 1183.79, 1336.97, 1474.43, 1594.84, 1697.66, 1782.8, 1848.94, 1896.18, 1925.27, 1944.7, 1937.11, 1918.79, 1901.87, 1949.47, 1959.83, 1960.28, 1961.32, 1962.14, 1962.94, 1909.55, 1781.3, 1606.19, 1400.76, 1174.56, 933.318, 683.25, 426.375, 166.55, -92.0622, -350.125, -602.311, -846.861, -1081.25, -1303.77, -1510.95, -1701, -1874.03, -2026.23, -2156.29, -2264.37, -2348.61, -2408.11, -2443.8, -2468.03, -2482.22, -2472.14, -2457.97, -2464.66, -2484.99, -2489.56, -2477.29, -2481.4, -2528.59, -2541.54, -2556.34, -2465.35, -2235.55, -2042.16, -1954.1, -1944.49, -1953.33, -2033.85, -2253.18, -2433.01, -2500.13, -2512.4, -2494.2, -2430.69, -2423.26, -2440.18, -2560.59, -2634.17, -2642.05, -2647.71, -2651.34, -2654.81, -2638.36, -2558.55, -2402.7, -2195.9, -1957.95, -1702.8, -1439.8, -1172.82, -903.656, -635.636, -370.857, -109.461, 144.152, 389.374, 623.209, 844.739, 1051.24, 1241.37, 1413.89, 1565.36, 1695.37, 1803.96, 1887.48, 1947.45, 1984.32, 2005.53, 1998.81, 1969.63, 1955.72, 2005.97, 2015.96, 2016.58, 2016.81, 2016.52, 2017.18, 2016.24, 1976.68, 1878.32, 1745.38, 1585.52, 1406.56, 1212.34, 1006.69, 789.424, 565.952, 335.455, 99.1871, -141.042, -383.91, -628.816, -874.34, -1120.32, -1363.97, -1605.58, -1843.87, -2078.06, -2306.34, -2529.24, -2744.7, -2952.74, -3151.38, -3339.42, -3517.51, -3683.78, -3836.12, -3976.14, -4102.64, -4214.21, -4310.6, -4391.32, -4457.27, -4506.34, -4541.13, -4560.69
4, 495.771, 199656, 0.49912, 1.00013, 0.997345, 0.244887, 0.250078, 2.32664, 22.5584, -120.913, -206.971, -228.407, -172.092, -11.5692, 23.7799, 34.2813, 25.225, -159.241, -397.316, -542.802, -614.019, -621.945, -614.051, -618.907, -629.876, -610.207, -399.812, -115.133, 70.2037, 204.902, 270.483, 275.952, 267.745, 271.74, 286.126, 289.428, 287.903, 244.897, 67.3658, -189.59, -407.887, -625.114, -866.385, -1087.53, -1283.87, -1452.14, -1587.39, -1684.49, -1740.43, -1771.53, -1764.51, -1687.43, -1676.83, -1706.36, -1717, -1704.55, -1709.08, -1791.2, -1799.47, -1784.61, -1618.08, -1343.21, -1138.92, -1045.9, -1033.08, -1047.54, -1171.66, -1477.93, -1695.76, -1763.83, -1769.3, -1704, -1629.54, -1629.66, -1698.8, -1836.12, -1869.71, -1875.87, -1873.69, -1856.61, -1767.68, -1567.83, -1308.81, -1038.5, -775.27, -521.086, -279.393, -46.1801, 169.336, 366.057, 538.169, 682.567, 795.414, 873.344, 916.894, 933.836, 899.364, 825.492, 831.345, 895.601, 912.125, 912.543, 911.066, 903.956, 888.312, 837.038, 693.973, 505.856, 294.877, 74.9251, -149.127, -376.973, -606.04, -837.915, -1069.62, -1301.45, -1531.66, -1758.18, -1979.76, -2195.53, -2402.56, -2597.87, -2782.2, -2951.16, -3104.93, -3241.75, -3359.2, -3457.45, -3534.48, -3589.79, -3625.19, -3644.07, -3655.22, -3666.03, -3664.42, -3544.41, -3325.25, -3097.07, -2914.5, -2804.73, -2758.57, -2767.11, -2783.91, -2785.68, -2785.7, -2779.62, -2828.73, -3044.66, -3337.15, -3549.18, -3697.14, -3778.67, -3810.21, -3820.72, -3818.08, -3691.92, -3490.61, -3343.54, -3294.5, -3292.98, -3325, -3487.57, -3652.22, -3728.43, -3752.4, -3761.55, -3724.25, -3714.19, -3728.85, -3777.69, -3821.76, -3827.15, -3833.72, -3838.09, -3843.97, -3843.69, -3812.27, -3724.64, -3581.42, -3401.26, -3193.69, -2970.33, -2736.35, -2493.54, -2247.64, -1997.43, -1745.57, -1492.73, -1238.88, -986.67, -737.537, -491.664, -251.096, -16.8671, 209.213, 425.591, 632.821, 827.354, 1009.04, 1177.31, 1330.09, 1467.2, 1587.29, 1689.85, 1774.77, 1840.74, 1887.86, 1916.89, 1936.31, 1930.02, 1913.87, 1896.81, 1943.85, 1954.18, 1954.74, 1956.13, 1957.61, 1959.4, 1907.27, 1780.43, 1606.81, 1402.87, 1178.11, 938.226, 689.433, 433.746, 175.027, -82.5572, -339.664, -590.961, -834.685, -1068.32, -1290.13, -1496.67, -1686.14, -1858.66, -2010.41, -2140.1, -2247.86, -2331.86, -2391.2, -2426.8, -2451.03, -2466.22, -2457.81, -2443.35, -2449.54, -2470.71, -2476.14, -2463.41, -2467.21, -2513.82, -2527.11, -2543.2, -2454.37, -2226.72, -2034.8, -1947.3, -1937.56, -1945.9, -2025, -2241.97, -2420.13, -2486.84, -2499.67, -2483.16, -2420.61, -2412.9, -2428.58, -2546.96, -2620.1, -2628.04, -2633.85, -2637.83, -2641.93, -2626.44, -2547.89, -2393.53, -2188.33, -1951.99, -1698.37, -1436.8, -1171.12, -903.141, -636.196, -372.396, -111.895, 140.896, 385.361, 618.501, 839.392, 1045.31, 1234.91, 1406.97, 1558.03, 1687.7, 1796, 1879.3, 1939.12, 1975.9, 1997.11, 1991.7, 1964.63, 1950.55, 2000.26, 2010.22, 2010.91, 2011.33, 2011.42, 2012.67, 2012.53, 1973.96, 1876.74, 1745.01, 1586.4, 1408.7, 1215.71, 1011.26, 795.126, 572.742, 343.282, 108.002, -131.284, -373.248, -617.288, -861.979, -1107.16, -1350.03, -1590.9, -1828.47, -2061.96, -2289.58, -2511.84, -2726.69, -2934.15, -3132.23, -3319.76, -3497.36, -3663.18, -3815.1, -3954.74, -4080.91, -4192.18, -4288.31, -4368.82, -4434.6, -4483.54, -4518.24, -4537.77
5, 483.189, 198621, 0.49647, 1.00051, 0.989842, 0.229568, 0.250285, 2.31458, 23.812, -108.629, -193.275, -216.354, -162.505, -5.76335, 29.4707, 41.217, 34.287, -146.707, -380.686, -524.662, -595.742, -605.336, -596.605, -600.258, -612.2, -594.358, -387.593, -116.293, 62.8815, 195.645, 260.518, 267.659, 258.814, 262.089, 276.289, 280.204, 279.77, 238.363, 64.5464, -180.657, -390.057, -603.866, -842.583, -1061.35, -1255.51, -1421.9, -1555.65, -1651.68, -1707.04, -1738.22, -1733.53, -1660.22, -1648.6, -1676.25, -1688.53, -1675.56, -1679.29, -1760.1, -1769.24, -1756.89, -1596.39, -1329.25, -1130.1, -1039, -1025.76, -1038.61, -1160.35, -1460.04, -1663.09, -1727.91, -1734.77, -1673.24, -1600.88, -1599.64, -1665.96, -1796.96, -1830.5, -1837.14, -1835.89, -1820.54, -1735.21, -1541.84, -1291.27, -1028.83, -771.561, -521.693, -283.319, -52.8647, 160.248, 354.856, 525.141, 668.025, 779.698, 856.823, 899.958, 917.273, 886.6, 817.077, 821.483, 883.607, 900.045, 900.766, 899.885, 893.86, 880.2, 832.272, 694.055, 511.826, 306.931, 92.5545, -126.727, -350.565, -576.206, -805.047, -1033.97, -1263.17, -1490.86, -1714.94, -1934.15, -2147.65, -2352.49, -2545.75, -2728.14, -2895.32, -3047.48, -3182.86, -3299.08, -3396.31, -3472.54, -3527.29, -3562.35, -3581.14, -3592.99, -3606.91, -3611.59, -3499.48, -3287.82, -3065.6, -2887.16, -2779.63, -2733.61, -2740.08, -2756.76, -2759.95, -2759.79, -2752.85, -2800.27, -3011.16, -3284.07, -3483.99, -3628.61, -3709, -3740.65, -3753.34, -3756.93, -3639.33, -3445.45, -3302.76, -3254.37, -3251.76, -3281.72, -3436.37, -3586.61, -3660.11, -3684.91, -3699.85, -3667.33, -3656.44, -3667.99, -3708.13, -3751.86, -3757.49, -3764.68, -3770.31, -3778.39, -3781.33, -3754.13, -3671.49, -3533.75, -3359.26, -3157.31, -2939.35, -2710.47, -2472.42, -2230.96, -1984.87, -1736.87, -1487.64, -1237.21, -988.232, -742.168, -499.215, -261.428, -29.845, 193.725, 407.729, 612.726, 805.173, 984.922, 1151.42, 1302.6, 1438.27, 1557.11, 1658.61, 1742.66, 1807.96, 1854.61, 1883.37, 1902.77, 1901.83, 1894.44, 1876.84, 1921.62, 1931.83, 1932.89, 1935.72, 1939.92, 1945.7, 1898.57, 1777.34, 1609.58, 1411.48, 1192.36, 957.822, 714.044, 463.041, 208.69, -44.8211, -298.13, -545.888, -786.322, -1016.91, -1235.92, -1439.89, -1627.05, -1797.51, -1947.47, -2075.63, -2182.16, -2265.2, -2323.88, -2359.11, -2383.37, -2402.78, -2401.16, -2385.59, -2389.69, -2414.36, -2423.33, -2408.75, -2411.26, -2455.42, -2470.14, -2491.53, -2411.41, -2192.25, -2006.09, -1920.79, -1910.52, -1916.83, -1989.9, -2197.13, -2368.67, -2433.74, -2448.9, -2439.33, -2380.65, -2371.81, -2382.28, -2492.48, -2563.84, -2572.01, -2578.5, -2583.94, -2590.64, -2579.07, -2505.63, -2357.22, -2158.36, -1928.35, -1680.79, -1424.84, -1164.31, -901.016, -638.338, -378.435, -121.508, 127.992, 369.425, 599.771, 818.098, 1021.68, 1209.17, 1379.35, 1528.77, 1657.04, 1764.2, 1846.62, 1905.82, 1942.25, 1963.46, 1963.51, 1944.94, 1930.21, 1977.68, 1987.54, 1988.53, 1989.76, 1991.4, 1995.07, 1998.19, 1963.59, 1870.85, 1743.92, 1590.25, 1417.47, 1229.31, 1029.53, 817.875, 599.773, 374.401, 143.028, -92.5186, -330.897, -571.489, -812.86, -1054.84, -1294.62, -1532.5, -1767.19, -1997.91, -2222.85, -2442.54, -2654.94, -2860.07, -3055.94, -3241.38, -3417.03, -3581.03, -3731.29, -3869.41, -3994.22, -4104.29, -4199.39, -4279.04, -4344.13, -4392.55, -4426.92, -4446.3
6, 456.795, 196385, 0.49074, 1.00121, 0.976155, 0.196889, 0.250583, 2.28853, 26.5198, -81.4454, -164.237, -190.864, -142.359, 1.77836, 36.6476, 51.083, 48.7456, -122.282, -345.503, -486.244, -557.029, -570.226, -559.688, -560.594, -574.636, -560.756, -363.158, -120.779, 47.0188, 175.792, 239.16, 249.914, 239.69, 241.411, 255.208, 260.445, 262.373, 224.565, 60.4974, -158.821, -351.765, -558.643, -791.906, -1005.58, -1195.08, -1357.44, -1487.96, -1581.7, -1635.81, -1667.15, -1667.78, -1603.3, -1589.45, -1613.04, -1628.99, -1614.91, -1616.92, -1694.61, -1705.62, -1699.03, -1552.09, -1301.15, -1112.42, -1025.19, -1011.02, -1020.39, -1136.81, -1416.71, -1590.12, -1649.7, -1659.63, -1607.16, -1539.84, -1535.65, -1595.51, -1713.47, -1746.91, -1754.58, -1755.39, -1744.17, -1667.45, -1488.75, -1255.96, -1009.41, -764.141, -523.158, -291.782, -67.2335, 140.705, 330.756, 497.104, 636.724, 745.871, 821.264, 863.507, 881.635, 859.987, 800.553, 801.834, 859.323, 875.557, 876.936, 877.392, 873.902, 864.897, 824.596, 696.937, 526.993, 334.428, 131.215, -78.4758, -294.145, -512.681, -735.135, -958.134, -1181.7, -1403.97, -1622.8, -1836.93, -2045.53, -2245.7, -2434.51, -2612.75, -2776.11, -2924.8, -3057.11, -3170.69, -3265.73, -3340.25, -3393.77, -3428.12, -3446.72, -3460.21, -3481.34, -3499.88, -3404.53, -3208.41, -2998.52, -2828.58, -2725.7, -2679.95, -2681.96, -2698.37, -2704.76, -2704.22, -2695.41, -2738.95, -2934.1, -3163.81, -3343.85, -3482.4, -3560.49, -3592.37, -3610.24, -3627.97, -3528.79, -3350.43, -3216.78, -3169.73, -3164.79, -3190.13, -3322.36, -3445.43, -3514.22, -3540.93, -3569.29, -3547.34, -3534.65, -3538.11, -3559.9, -3602.91, -3609.07, -3617.73, -3626.39, -3639.54, -3649.76, -3631.8, -3559.82, -3433.57, -3270.8, -3080.39, -2873.51, -2655.11, -2426.9, -2194.66, -1957.22, -1717.34, -1475.79, -1232.64, -990.582, -751.119, -514.465, -282.688, -56.8307, 161.3, 370.158, 570.313, 758.235, 933.79, 1096.44, 1244.13, 1376.71, 1492.84, 1592.03, 1674.19, 1738.03, 1783.65, 1811.83, 1831.2, 1842.69, 1854.25, 1835.48, 1875.37, 1885.32, 1887.55, 1893.77, 1904.11, 1918.58, 1882.01, 1772.43, 1616.68, 1430.47, 1222.83, 999.197, 765.708, 524.377, 279.104, 34.1124, -211.207, -451.484, -684.933, -909.025, -1122.04, -1320.53, -1502.73, -1668.77, -1814.88, -1939.76, -2043.62, -2124.6, -2181.84, -2216.28, -2240.62, -2270.1, -2283.82, -2265.8, -2265.16, -2298.1, -2315.09, -2296.4, -2295.84, -2334.06, -2352.12, -2385.64, -2324.23, -2122.62, -1948.15, -1867.3, -1855.88, -1857.39, -1915.56, -2100.97, -2258.63, -2320.37, -2341, -2347.18, -2296.92, -2285.59, -2283.46, -2375.88, -2443.61, -2452.29, -2460.36, -2469.26, -2482.02, -2479.26, -2416.98, -2281.22, -2095.6, -1878.67, -1643.57, -1399.21, -1149.35, -895.839, -642.134, -390.488, -141.184, 101.263, 336.168, 560.482, 773.26, 971.77, 1154.68, 1320.79, 1466.64, 1591.88, 1696.56, 1777.06, 1834.92, 1870.6, 1891.79, 1904.52, 1904.33, 1888.2, 1930.86, 1940.5, 1942.19, 1945.33, 1950.57, 1959.65, 1969.88, 1943.72, 1860.34, 1743.31, 1599.71, 1436.97, 1258.63, 1068.37, 865.884, 656.588, 439.672, 216.424, -11.3013, -242.139, -475.447, -709.772, -944.928, -1178.11, -1409.6, -1638.1, -1862.85, -2082.04, -2296.21, -2503.32, -2703.41, -2894.5, -3075.44, -3246.87, -3406.95, -3553.61, -3688.46, -3810.32, -3917.81, -4010.68, -4088.46, -4152.06, -4199.38, -4233.02, -4252.06
7, 330.025, 181761, 0.453056, 1.00227, 0.960331, 1e-06, 0.250757, 2.11811, 44.2329, 64.4449, -12.6594, -62.4993, -61.1577, -51.939, -18.2275, 13.7971, 42.9245, 25.2888, -151.424, -272.025, -340.963, -377.837, -355.481, -330.583, -358.371, -373.294, -277.663, -161.81, -38.8139, 66.9838, 121.104, 156.145, 136.907, 128.454, 139.531, 153.427, 171.581, 170.571, 105.387, 1.24586, -131.632, -300.248, -499.317, -680.834, -841.027, -978.063, -1088.32, -1167.69, -1213.93, -1246.37, -1288.98, -1288.07, -1259.72, -1249.1, -1292.16, -1270.85, -1261.23, -1243.42, -1267.94, -1311.86, -1262.83, -1105.19, -973.242, -907.609, -887.354, -873.5, -921.534, -1032.89, -1128.58, -1174.5, -1207.97, -1235.14, -1204.04, -1180.61, -1171.14, -1221.29, -1254.17, -1268.88, -1286.76, -1313.27, -1302.93, -1210.34, -1063.34, -889.469, -702.831, -510.333, -320.84, -133.556, 40.9542, 201.337, 342.037, 460.433, 553.186, 617.364, 653.834, 677.852, 731.578, 738.081, 718.926, 724.235, 735.161, 741.097, 752.196, 769.79, 795.996, 804.807, 735.462, 626.526, 492.526, 343.014, 181.944, 10.665, -166.611, -350.007, -535.505, -722.755, -909.721, -1094.27, -1275.21, -1451.89, -1621.6, -1781.66, -1933.07, -2071.75, -2198.14, -2310.74, -2407.36, -2488.37, -2551.92, -2597.64, -2627.42, -2644.8, -2671.32, -2740.64, -2835.02, -2822.06, -2700.33, -2550.11, -2422.43, -2343.12, -2298.78, -2265.55, -2278.72, -2307.76, -2304.67, -2282.37, -2257.61, -2273.8, -2370.29, -2497.6, -2609.28, -2674.7, -2708.42, -2766.63, -2870.06, -2865.45, -2761.93, -2671.37, -2630.7, -2610.38, -2576.52, -2537.62, -2590.23, -2641.52, -2684.24, -2801.95, -2837.88, -2813.45, -2716.36, -2675.88, -2714.85, -2725.3, -2746.28, -2777.78, -2824.54, -2877.57, -2909.14, -2890.84, -2820.19, -2713.36, -2578.16, -2425.18, -2259.11, -2081.58, -1898.41, -1708.51, -1514.76, -1317.98, -1118.29, -918.405, -719.804, -522.661, -328.973, -139.692, 43.4765, 219.104, 387.88, 546.402, 694.663, 832.244, 957.215, 1069.52, 1167.94, 1252.07, 1321.9, 1376.2, 1415.13, 1439.48, 1458.67, 1548.95, 1653.21, 1626.77, 1634.59, 1642.68, 1654.1, 1682.83, 1728.08, 1786.79, 1800.39, 1744.15, 1642.97, 1511.32, 1357.5, 1186.56, 1004.42, 812.978, 616.027, 417.688, 217.231, 19.8778, -172.761, -358.345, -535.363, -700.578, -852.438, -991.284, -1113.53, -1218.08, -1305.26, -1373.38, -1421.67, -1451.13, -1475.99, -1580.08, -1678.14, -1643.34, -1600.97, -1693.51, -1756.34, -1703.52, -1671.16, -1656.82, -1701.48, -1810.93, -1845.15, -1725.85, -1605.31, -1545.04, -1525.56, -1478.33, -1418.18, -1489.9, -1585.89, -1632.94, -1697.07, -1800.71, -1795.68, -1764.43, -1662.01, -1666.37, -1718.06, -1730.83, -1752.44, -1788.21, -1841.7, -1891.17, -1888.79, -1816.79, -1695.82, -1542.43, -1368.65, -1182.92, -988.875, -788.433, -585.168, -381.446, -177.621, 21.7773, 216.096, 402.371, 579.769, 745.703, 898.997, 1038.59, 1161.22, 1266.66, 1355.1, 1423.03, 1472.08, 1502.79, 1523.91, 1616.68, 1706.5, 1681.17, 1689.9, 1696.57, 1703.8, 1720.69, 1748.34, 1787.55, 1833.99, 1848.4, 1808.44, 1736.47, 1638.73, 1522.07, 1389.65, 1244.95, 1087.56, 922.831, 749.942, 570.173, 385.368, 196.881, 5.32666, -187.881, -382.608, -576.114, -768.757, -959.335, -1147.17, -1330.57, -1510.16, -1684.02, -1852.3, -2013.15, -2165.49, -2310.09, -2445.22, -2568.89, -2682.8, -2785.87, -2876.79, -2955.37, -3021.21, -3075.27, -3115.49, -3144.5, -3161.39
8, 300, 154942, 0.361185, 0.989824, 1.30104, 1e-06, 0.202606, 1.80558, 76.7125, 144.415, 77.2893, -15.1196, -71.8769, -99.0822, -65.79, -1.50824, 81.7073, 115.149, -3.37843, -86.0691, -151.533, -231.512, -187.482, -137.766, -190.747, -250.591, -200.95, -155.064, -91.8476, -27.1493, 9.77849, 87.5271, 51.758, 24.6403, 30.559, 60.3181, 106.049, 135.356, 105.675, 63.2721, -3.05538, -105.821, -240.576, -361.077, -465.742, -554.904, -626.895, -679.155, -710.572, -745.002, -827.461, -848.859, -793.894, -741.493, -818.398, -783.798, -753.759, -737.72, -782.826, -855.786, -841.467, -739.346, -657.604, -615.09, -583.688, -528.489, -539.594, -614.314, -665.014, -695.809, -760.42, -820.118, -800.95, -742.244, -696.527, -718.239, -750.279, -777, -813.366, -858.008, -868.313, -812.09, -720.375, -613.304, -497.926, -377.2, -257.779, -137.299, -24.9454, 79.2294, 170.886, 248.512, 309.708, 352.279, 377.623, 410.476, 491.352, 512.724, 456.089, 424.399, 436.071, 449.463, 471.802, 501.044, 538.533, 562.331, 517.439, 445.09, 358.582, 264.591, 164.381, 57.34, -53.6316, -169.566, -287.138, -406.592, -526.434, -645.057, -761.815, -876.57, -987.125, -1091.3, -1190.6, -1281.39, -1364.54, -1438.92, -1502.72, -1556.58, -1598.92, -1629.55, -1650.51, -1665.51, -1699.03, -1770.81, -1871.02, -1882.07, -1800.66, -1695.8, -1607.03, -1551.78, -1508.93, -1428.2, -1439.74, -1485.28, -1477.52, -1434.05, -1406.6, -1440.14, -1490.05, -1562.93, -1632.65, -1676.13, -1712.07, -1778.34, -1887.5, -1906.62, -1838.07, -1774.32, -1738.03, -1689.82, -1633.09, -1624.9, -1639.13, -1666.08, -1717.21, -1841.47, -1886.59, -1840.63, -1750.11, -1682.51, -1714.27, -1728.71, -1753.72, -1787.34, -1835.27, -1891.44, -1931.29, -1928.66, -1882.05, -1807.55, -1712.26, -1605.78, -1491.72, -1370.71, -1247.67, -1120.71, -991.947, -861.58, -729.124, -596.761, -465.444, -334.865, -206.559, -81.0379, 40.4118, 156.765, 269.094, 374.352, 472.879, 564.564, 647.768, 722.708, 788.389, 844.621, 891.563, 928.136, 954.608, 971.858, 990.701, 1071.3, 1173.33, 1132.84, 1081.8, 1086.49, 1101.09, 1129.07, 1171.51, 1230.05, 1250.41, 1210.33, 1135.36, 1039.41, 929.576, 809.516, 683.713, 552.708, 419.051, 285.717, 150.92, 18.9085, -109.611, -233.139, -350.942, -460.507, -560.939, -653.189, -734.204, -803.348, -861.377, -906.898, -939.41, -960.097, -985.726, -1088.52, -1180.16, -1117.11, -1031.12, -1131.67, -1194.4, -1102.6, -1054.41, -1011.65, -1066.47, -1179.48, -1231.31, -1146.52, -1059.01, -1013.56, -981.099, -913.228, -849.993, -893.219, -955.266, -991.714, -1069.14, -1182.38, -1187.66, -1133.04, -1022.89, -1000.1, -1041.57, -1058.61, -1085.56, -1124.69, -1180.82, -1236.36, -1247.67, -1199.41, -1112.62, -1002.92, -880.766, -752.92, -621.421, -486.763, -351.284, -216.254, -81.0529, 50.6741, 179.085, 301.966, 419.176, 528.774, 630.174, 722.853, 804.033, 873.908, 933.032, 978.197, 1011.27, 1032.93, 1053.92, 1137.63, 1224.33, 1182.15, 1131.13, 1133.99, 1144.07, 1161.8, 1187.97, 1225.08, 1271.34, 1289.82, 1259.84, 1204.6, 1130.52, 1044.18, 948.252, 845.552, 735.017, 621.334, 503.055, 380.884, 256.124, 129.628, 1.53992, -127.168, -256.778, -384.95, -512.424, -638.367, -762.453, -883.327, -1001.95, -1116.71, -1228.06, -1334.43, -1435.02, -1530.87, -1620.48, -1702.08, -1777.59, -1846.11, -1906.5, -1958.73, -2002.52, -2038.95, -2066.02, -2086.45, -2099.36
9, 300, 118927, 0.134336, 0.966392, 2, 1e-06, 0.0829152, 1.38588, 120.33, 214.46, 162.435, 12.8609, -123.188, -139.24, -106.238, 1.36118, 158.142, 205.335, 169.855, 144.578, 84.3787, -53.6094, 19.5259, 103.323, 16.5035, -105.786, -93.316, -115.687, -139.302, -135.992, -124.899, 10.902, -47.0669, -99.2826, -100.771, -49.702, 33.878, 109.902, 98.3879, 118.351, 146.321, 140.493, 101.9, 73.2425, 52.4128, 35.6348, 21.5423, 10.314, 1.34556, -35.7642, -182.764, -239.093, -148.395, -31.5561, -158.927, -106.49, -48.6141, -20.1817, -94.6202, -220.369, -246.308, -219.861, -215.618, -208.252, -161.88, -50.6197, 7.97983, -26.9184, -11.1649, -19.3829, -130.123, -245.332, -238.016, -131.927, -15.6593, -6.748, -37.5359, -80.7737, -146.44, -225.508, -262.785, -246.313, -236.292, -230.85, -219.977, -202.589, -183.86, -159.818, -137.744, -115.666, -95.9692, -78.3708, -63.7568, -53.1331, -44.2567, 1.31931, 142.812, 183.67, 76.7034, -23.2045, -12.3976, 11.4043, 52.003, 104.579, 165.098, 210.35, 198.887, 186.249, 180.115, 175.728, 168.631, 156.444, 141.607, 122.809, 102.981, 81.3343, 58.697, 35.9282, 12.8693, -11.1591, -34.7767, -56.6135, -78.9316, -98.8457, -117.89, -135.555, -150.582, -164.075, -174.841, -183.012, -190.829, -202.305, -252.547, -353.675, -478.776, -535.027, -533.472, -517.974, -502.954, -491.883, -451.74, -299.571, -307.068, -381.306, -367.29, -293.734, -214.022, -233.142, -210.253, -197.828, -203.494, -213.67, -253.121, -352.746, -491.593, -553.127, -551.118, -539.612, -511.819, -426.003, -300.72, -277.04, -249.577, -239.231, -310.182, -476.009, -539.581, -464.702, -310.548, -228.092, -249.043, -270.588, -308.396, -357.466, -420.04, -489.219, -545.116, -570.04, -568.643, -557.118, -538.641, -518.393, -496.67, -471.956, -447.841, -421.55, -394.568, -366.532, -336.442, -305.968, -275.536, -244.305, -213.267, -182.386, -152.404, -123.805, -94.9939, -68.5123, -43.5283, -19.7087, 1.73447, 21.4144, 38.6736, 53.6407, 66.7288, 77.0726, 85.1181, 91.8552, 110.183, 228.344, 350.29, 290.924, 161.55, 162.414, 187.464, 230.212, 286.815, 359.363, 402.166, 403.146, 391.018, 375.85, 359.002, 339.427, 318.466, 294.589, 268.877, 243.142, 214.566, 186.429, 158.488, 131.321, 104.753, 80.4196, 58.3959, 36.9391, 18.4033, 2.7911, -11.2148, -22.6586, -31.3934, -38.8624, -65.6151, -215.72, -329.33, -227.98, -100.446, -246.027, -324.821, -176.978, -113.046, -45.5972, -129.171, -276.486, -367.892, -353.745, -334.287, -318.683, -267.965, -147.254, -49.0379, -50.3885, -53.4425, -71.493, -189.415, -338.646, -362.217, -270.587, -115.098, -49.2426, -72.737, -96.9609, -138.743, -196.335, -269.929, -342.264, -378.668, -375.049, -355.7, -331.262, -305.495, -280.201, -254.403, -226.796, -198.5, -169.828, -139.284, -109.665, -79.96, -51.5292, -23.6736, 2.49005, 27.1556, 50.5343, 70.5293, 87.928, 103.808, 115.398, 124.892, 133.224, 154.015, 277.773, 385.841, 321.024, 196.833, 198.695, 215.999, 244.956, 283.57, 332.332, 390.382, 425.382, 422.692, 409.434, 392.163, 375.039, 357.655, 340.207, 319.729, 299.6, 277.486, 253.448, 228.286, 202.425, 175.607, 148.413, 120.172, 92.824, 65.2253, 37.7962, 10.446, -15.8816, -42.5619, -68.3944, -94.241, -118.909, -141.985, -164.865, -186.378, -205.097, -223.225, -240.135, -254.945, -267.829, -278.706, -288.803, -296.262, -303.884, -310.867
10, 451.948, 180295, 1e-06, 0.848582, 2, 1e-06, 1e-06, 2.10102, 46.0072, 77.3895, 31.3958, -20.7718, -11.4585, 0.70783, 33.3849, 67.1736, 97.9054, 73.6293, 74.0073, 71.6704, 13.5748, -25.5447, -2.00326, 35.7794, 6.61885, -7.78701, 110.013, 44.7709, -14.1679, -35.3577, -34.5763, 2.15096, -17.9908, -27.6251, -19.1768, -4.41884, 14.4668, 0.399973, -83.1138, -25.2923, 41.3092, 74.0035, 73.736, 81.7387, 94.39, 106.525, 115.562, 120.726, 120.726, 88.1827, 59.1736, 102.635, 132.445, 138.143, 99.8579, 121.902, 132.338, 102.947, 78.8339, 61.6257, 133.551, 118.74, 83.4683, 75.6145, 96.4795, 112.169, 39.5828, 37.0358, 85.0657, 85.9742, 55.3399, 74.7419, 115.131, 140.483, 117.893, 112.674, 82.3672, 67.3148, 53.327, 48.1354, 94.7504, 123.437, 83.5747, 43.1522, 12.7582, -9.81138, -30.2053, -43.9078, -57.3637, -67.717, -76.5186, -82.7317, -86.615, -88.686, -86.3555, -62.5554, -58.7052, -96.3938, -117.599, -95.299, -81.3128, -75.2908, -66.7984, -60.4626, -60.0396, -77.6999, -106.468, -83.9148, -47.1437, -12.8066, 16.5885, 40.5945, 62.4451, 80.9969, 99.0539, 115.571, 131.059, 146.032, 159.973, 171.849, 182.693, 193.537, 201.799, 210.061, 216.516, 221.421, 225.81, 228.392, 230.199, 230.974, 228.392, 218.322, 198.406, 174.835, 161.656, 141.336, 84.9372, 42.669, 18.445, 8.29829, 47.1844, 77.1964, 62.6276, 46, 49.3444, 71.6053, 54.5192, 43.6495, 135.124, 182.705, 202.574, 205.671, 172.244, 144.028, 128.009, 125.142, 81.9838, 56.0955, 78.2827, 100.024, 105.776, 57.1274, 138.791, 165.557, 130.917, 99.1852, 104.796, 130.399, 154.866, 188.43, 171.497, 162.284, 148.853, 136.338, 123.247, 115.33, 116.654, 109.934, 83.6839, 48.4602, 18.911, -5.71003, -26.0501, -41.7242, -57.2104, -70.2579, -82.6012, -93.9459, -103.239, -112.025, -120.558, -127.801, -134.528, -140.48, -146.173, -151.868, -155.75, -160.151, -164.034, -166.881, -169.729, -171.8, -173.612, -174.906, -175.165, -175.164, -174.388, -171.798, -153.673, -147.53, -153.374, -180.578, -175.916, -167.953, -162.063, -154.524, -150.385, -143.266, -142.205, -121.514, -80.6621, -39.9008, -5.48943, 22.0181, 45.547, 64.6908, 81.1067, 96.7997, 108.903, 120.503, 131.078, 140.882, 149.398, 157.915, 166.175, 172.112, 177.791, 182.954, 186.052, 187.859, 188.375, 186.051, 161.216, 122.252, 112.346, 147.599, 175.825, 131.443, 114.412, 159.145, 172.155, 193.777, 165.2, 130.861, 112.933, 74.3184, 43.0197, 39.6612, 59.231, 81.1421, 64.6671, 96.3991, 136.692, 128.748, 94.0924, 80.1011, 89.9214, 117.665, 138.882, 168.658, 151.643, 139.835, 125.979, 111.927, 98.0015, 94.3735, 97.1974, 78.2266, 44.0507, 13.4394, -10.7068, -31.1987, -48.7976, -63.3175, -76.4061, -88.5148, -98.0616, -107.622, -115.896, -123.915, -130.642, -136.853, -142.029, -145.652, -149.535, -152.641, -153.676, -155.229, -154.97, -151.863, -131.148, -123.067, -136.751, -162.999, -155.083, -147.145, -142.696, -137.021, -132.526, -129.351, -124.403, -128.917, -129.991, -106.276, -74.5322, -43.1541, -15.572, 8.82254, 28.1508, 46.7216, 62.8411, 76.9606, 90.0816, 102.705, 114.565, 126.172, 136.751, 148.107, 158.947, 169.531, 179.599, 189.925, 198.961, 207.739, 215.226, 222.455, 229.684, 235.364, 240.527, 246.465, 250.854, 254.211, 257.309, 259.891, 261.956, 262.214, 262.472, 259.89, 255.242
11, 458.185, 197875, 0.0230052, 0.899145, 1e-06, 0.0194968, 0.0314828, 2.30588, 50.5026, 136.358, 76.8735, 34.9818, -89.9244, -150.399, -117.249, -94.3132, 37.4929, 171.996, 114.51, 86.5526, 26.4699, -1.81365, 20.6008, 94.989, 78.2714, 19.8359, -24.3302, -43.7243, -54.982, -52.6356, -43.5676, -18.0936, -33.6788, -72.8249, -77.0318, -71.6216, -51.2229, 3.16064, 40.8729, 59.393, 73.6629, 71.4101, 46.3639, 35.5845, 33.5016, 34.0948, 34.4507, 33.6901, 30.5157, -0.720569, -23.4242, -51.4269, -30.1651, 73.5807, 44.7977, 60.0682, 83.2404, 112.365, 100.062, 49.0879, -3.13325, -1.45804, -0.539594, 5.41958, 19.2772, 36.6005, 95.4007, 99.4149, 92.5538, 78.9371, 61.6178, -6.10362, -10.7628, 5.96202, 122.681, 125.483, 93.9271, 86.4906, 77.7128, 42.0312, -3.17995, -19.4928, -20.9684, -19.5416, -18.3713, -16.8468, -17.878, -15.3896, -15.0379, -13.6076, -12.5174, -10.7178, -8.50399, -6.44547, -2.00133, 15.7204, 32.4365, 55.0096, 36.812, -85.6152, -77.8023, -76.7533, -74.928, -66.671, -36.1023, 7.66684, 11.3662, 9.65398, 8.72414, 10.6814, 14.2192, 17.0765, 20.866, 23.3641, 26.7112, 29.4714, 31.9378, 34.516, 36.6496, 37.3085, 37.5552, 38.4693, 37.5243, 37.3627, 36.2353, 34.4576, 33.1162, 30.9653, 29.0774, 27.2261, 23.1088, 12.6266, 1.00022, -16.2217, -74.0399, -111.434, -112.772, -105.868, -100.029, -95.2474, -55.5071, -33.8893, -45.9439, -58.0404, -57.722, -44.209, -13.5535, 12.9926, 23.9716, 27.4675, 24.7302, 18.1853, -13.5191, -27.8994, -80.7315, -120.095, -122, -116.067, -89.2571, -81.2515, -25.566, 50.1761, 67.9566, 64.4049, 39.3303, -16.6703, -64.0794, -49.2164, 53.0714, 114.768, 85.2089, 79.4951, 72.178, 64.1089, 43.2182, 3.31086, -43.2671, -75.504, -89.4893, -95.5365, -95.085, -93.5159, -91.5953, -88.044, -86.4588, -83.9287, -81.7368, -79.2938, -75.3644, -71.3868, -67.5618, -62.8324, -57.9801, -52.7678, -47.7458, -43.2133, -37.4019, -32.6875, -28.082, -23.1112, -18.8546, -14.5767, -10.8309, -7.39223, -3.77006, -0.764488, 2.12321, 5.91666, 24.1004, 14.8696, 52.1883, 32.9621, -42.4491, -44.8395, -44.2921, -43.7378, -36.9405, -4.49203, 19.875, 21.7645, 21.4137, 23.2042, 26.238, 28.678, 31.4532, 32.668, 33.0278, 33.9663, 32.293, 30.9247, 29.2676, 27.5647, 25.324, 23.8833, 23.0418, 20.7996, 19.2849, 18.2994, 16.3496, 14.2543, 12.05, 8.21437, -16.0722, -40.4012, -88.9871, -60.8554, 48.702, 15.3122, -25.7265, 23.8476, 79.446, 141.776, 125.934, 63.1579, -19.8005, -28.4109, -25.8687, -16.8326, -5.7197, 18.2619, 96.7982, 111.765, 102.443, 82.0477, 61.8889, -14.9523, -37.2957, -21.7178, 80.0542, 136.643, 106.462, 98.1782, 91.2096, 80.9735, 52.0347, 4.11409, -32.5669, -43.5946, -42.7321, -37.1128, -30.7907, -26.2929, -22.8918, -19.145, -15.8493, -12.9248, -8.47605, -4.90842, -0.842013, 2.71109, 6.77249, 10.5271, 14.4432, 18.9823, 22.2739, 25.3, 29.306, 31.6595, 34.6587, 39.3145, 60.0514, 52.7974, 79.8827, 62.499, -19.4293, -20.5381, -19.7288, -19.815, -19.4509, -10.6412, 15.6512, 33.8839, 29.2322, 24.0949, 20.3649, 19.5559, 20.1999, 22.1619, 22.3729, 24.1342, 25.0149, 24.9589, 24.6294, 24.3064, 23.5844, 22.8926, 21.4092, 20.9235, 20.1453, 19.3476, 18.2962, 17.7958, 16.3326, 14.9764, 12.7342, 10.6775, 9.1036, 6.50213, 3.94202, 2.74987, 0.634298, -1.85899, -3.92608, -5.80249, -7.46643, -10.191, -12.1551, -16.1879, -21.5079
12, 473.218, 189370, 0.025322, 0.854885, 0.00101991, 0.0136421, 0.0275558, 2.20677, 37.6836, 72.9553, 16.5393, -24.5629, -84.42, -112.836, -79.5066, -54.8507, 26.3466, 126.638, 69.3623, 45.1443, -14.5768, -42.7155, -22.827, 38.5711, 17.4348, -8.36917, 4.42067, 1.10744, -12.2772, -13.3298, -5.7164, 19.9498, 4.24078, -21.6362, -23.3368, -13.8618, -0.0292582, 15.8219, 11.4797, 15.6898, 32.0262, 35.3307, 15.1249, 7.82345, 8.07847, 10.1897, 11.4969, 11.2937, 8.38843, -23.4792, -42.1329, -31.2701, -9.06865, 48.8245, 20.1219, 37.7616, 47.3709, 49.8313, 32.8781, 10.0415, 16.7434, 36.9882, 37.6784, 42.2353, 59.3456, 68.3031, 71.0587, 47.2024, 38.9045, 26.2969, 5.88007, -10.4491, 4.01132, 20.574, 86.2551, 76.012, 44.3974, 33.4827, 25.4171, 12.6735, 8.57992, 18.6203, 21.6968, 18.3338, 13.3255, 9.7314, 4.95576, 4.83533, 3.41293, 3.65702, 3.96751, 5.26612, 7.16949, 9.04968, 13.4119, 34.0003, 34.2266, 23.9147, 10.6033, -58.5104, -49.54, -46.1416, -42.0758, -38.8526, -28.4355, -13.6041, -30.0781, -37.051, -34.2467, -25.7925, -15.9912, -8.02183, -0.339462, 5.02126, 10.4264, 14.6361, 18.098, 21.3347, 23.8782, 24.7644, 25.1062, 26.0218, 25.0143, 24.7496, 23.4971, 21.5865, 20.1162, 17.8493, 15.8654, 13.943, 9.78314, -0.710606, -16.1716, -31.7133, -54.3214, -56.4216, -53.4744, -54.4424, -55.9508, -55.2581, -15.7576, 2.63849, -11.4402, -23.5635, -21.7963, -6.18661, -6.60265, -22.2146, -17.4407, -8.37518, -6.44378, -10.8196, -43.3557, -62.0736, -82.6581, -77.4943, -68.9483, -64.9034, -38.6646, -25.7956, -5.31057, 17.4907, 20.7029, 16.2999, -13.0406, -43.9854, -57.4055, -38.6308, 24.9419, 64.1577, 33.8945, 26.5043, 16.601, 8.48066, -3.13958, -20.2062, -37.3722, -47.2384, -51.831, -58.123, -62.3261, -66.4783, -69.8565, -70.7086, -72.5955, -72.7223, -72.5205, -71.5393, -68.6589, -65.4098, -62.0656, -57.626, -52.9171, -47.7368, -42.6635, -38.0187, -32.0522, -27.1549, -22.3506, -17.1757, -12.7177, -8.24837, -4.32686, -0.732983, 3.01999, 6.12896, 9.09032, 12.9262, 31.112, 24.26, 22.0009, -0.536766, -30.7751, -30.0756, -27.0092, -24.2123, -23.4471, -12.0983, -13.269, -23.8305, -22.3232, -12.4519, -0.732052, 8.9695, 17.2746, 22.5311, 25.7821, 28.7573, 28.4952, 28.0829, 27.051, 25.734, 23.7077, 22.3606, 21.5304, 19.2466, 17.6601, 16.59, 14.5566, 12.3883, 10.1292, 6.26174, -18.2904, -44.5612, -61.278, -33.224, 38.7188, 5.19748, -16.6414, 24.3931, 61.3466, 106.57, 85.7386, 48.6265, 13.4605, 15.4883, 14.4427, 21.1878, 36.1833, 51.4081, 76.3584, 62.5099, 50.5336, 30.7123, 6.7883, -22.6784, -20.4948, -1.15225, 58.4574, 91.3041, 59.9857, 50.0128, 40.1814, 30.9642, 16.3739, -1.79961, -8.46026, -4.03539, -1.60896, -1.06882, -1.38228, -2.93157, -4.40438, -4.37649, -3.83714, -2.91644, 0.100819, 2.66665, 6.05146, 9.15995, 12.9504, 16.5591, 20.4171, 24.957, 28.2857, 31.3677, 35.4347, 37.8443, 40.8871, 45.5689, 66.3063, 61.0838, 49.3204, 28.5672, -6.6097, -5.28417, -2.73393, -0.403941, 0.0840151, 1.44747, 10.009, 6.39699, -13.4005, -22.6424, -22.6021, -16.3781, -8.3438, 0.126975, 5.63934, 11.5501, 15.6056, 17.9402, 19.3845, 20.3547, 20.5522, 20.4891, 19.408, 19.148, 18.4578, 17.6411, 16.4882, 15.8236, 14.1494, 12.5487, 10.0395, 7.70266, 5.8432, 2.95742, 0.119973, -1.33758, -3.70239, -6.42514, -8.69875, -10.7562, -12.5733, -15.4216, -17.4785, -21.5722, -26.9205
13, 471.433, 197562, 0.022972, 0.841532, 0.00465321, 0.0181155, 0.0295023, 2.30224, 25.4626, 51.3539, 0.459738, -26.5115, -61.6532, -86.5993, -53.2933, -39.1972, 17.659, 110.122, 57.8585, 36.7516, -22.7202, -36.7764, -26.3646, 15.6764, 2.42895, -5.06777, 23.1349, 17.1579, -1.18404, -5.01719, 1.62156, 13.2052, 3.58598, -4.94995, -2.26497, 2.32381, 6.37143, 6.41638, -8.21553, -1.91572, 19.6452, 26.9833, 9.47374, 3.99727, 5.53584, 8.5695, 10.5291, 10.7537, 8.07252, -23.1855, -24.8227, 0.691888, 13.7878, 38.3831, 22.4425, 35.9345, 33.0648, -8.20331, -18.3078, -21.1493, 15.4171, 46.9308, 48.8084, 53.1929, 66.8895, 61.5207, 45.0498, 21.5061, 18.6375, 7.79994, -1.42789, 5.14715, 24.9397, 29.6041, 70.5965, 58.297, 26.7348, 19.5971, 18.9387, 18.7317, 28.3385, 42.3387, 41.6762, 33.647, 25.1053, 19.0359, 12.485, 11.031, 8.56624, 7.97685, 7.61954, 8.3944, 9.90779, 11.5275, 15.7574, 33.4347, 13.0614, -8.74165, -8.02882, -44.2093, -34.6097, -33.5878, -33.927, -37.7652, -37.7816, -33.7153, -54.9743, -60.4433, -53.9368, -42.0061, -29.4998, -19.4919, -10.2362, -3.60757, 2.86601, 8.01098, 12.3154, 16.3256, 19.587, 21.1427, 22.1086, 23.6033, 23.1292, 23.3499, 22.5327, 21.0048, 19.862, 17.8651, 16.0918, 14.3189, 10.2464, -0.22388, -11.6262, -16.1641, -21.1644, -15.3073, -17.7051, -24.9279, -30.2867, -31.4366, 7.96059, 8.45147, -6.8501, -10.6019, -10.2598, -1.80395, -18.6355, -44.4894, -35.117, -21.1685, -16.6043, -19.9008, -51.6328, -60.5482, -61.3542, -42.0926, -34.7431, -33.7484, -8.00246, -3.93087, -4.70282, -0.595195, 1.27652, -1.6532, -26.1194, -35.8262, -35.845, -23.8752, 14.4168, 44.6658, 14.5558, 8.81245, 2.19188, -0.766153, -4.58258, -10.7604, -16.5415, -19.5093, -23.0371, -31.4899, -38.6307, -45.4572, -51.0225, -53.6299, -56.9494, -58.2811, -59.1266, -59.0828, -57.0614, -54.6134, -52.025, -48.3036, -44.2795, -39.7526, -35.3015, -31.247, -25.8375, -21.4622, -17.1428, -12.4135, -8.35987, -4.25146, -0.645612, 2.67964, 6.21248, 9.15103, 11.9927, 15.7604, 33.9429, 11.6005, -11.3478, -29.5164, -23.3024, -20.2878, -19.7814, -21.7925, -28.9144, -29.2509, -41.6126, -56.2744, -52.9769, -39.7241, -24.9918, -12.9677, -2.89169, 3.76175, 8.16583, 12.1335, 12.7538, 13.1429, 12.8483, 12.2128, 10.8156, 10.0458, 9.74014, 7.92552, 6.75039, 6.03117, 4.28518, 2.33895, 0.234449, -3.54708, -27.8433, -38.4451, -37.4402, -19.0286, 33.5224, 14.4162, 3.12673, 27.9361, 55.2527, 92.1571, 78.7929, 60.0359, 41.8752, 43.6692, 39.3576, 44.7837, 55.6057, 55.7577, 57.6073, 36.3868, 26.1024, 7.08068, -5.27108, -10.3106, 0.892484, 11.3466, 47.1816, 71.0478, 39.6347, 31.3199, 25.2559, 22.2875, 17.5022, 12.3272, 16.275, 23.9585, 24.4445, 21.6206, 18.2327, 14.2401, 10.865, 9.37858, 8.66858, 8.52123, 10.5983, 12.3189, 14.934, 17.3371, 20.481, 23.4999, 26.8247, 30.889, 33.8019, 36.5296, 40.3063, 42.4913, 45.3767, 49.9698, 70.7058, 49.4135, 17.1798, 1.73185, 0.912604, 3.8752, 4.70902, 3.90585, -0.398188, -6.12531, -7.16279, -20.4293, -45.7297, -55.3658, -52.9626, -43.7807, -33.1071, -22.4985, -15.2824, -7.98936, -2.77598, 0.563358, 2.90814, 4.70727, 5.68364, 6.36323, 5.99728, 6.4301, 6.41315, 6.25133, 5.73499, 5.68781, 4.61074, 3.58515, 1.62732, -0.184013, -1.54567, -3.96348, -6.36468, -7.41967, -9.41734, -11.81, -13.7922, -15.5981, -17.2049, -19.885, -21.8166, -25.8285, -31.1388
14, 478.962, 198343, 0.0220972, 0.847263, 0.0109509, 0.01735, 0.0264578, 2.31133, 24.1782, 39.5357, -9.25493, -34.6689, -62.6486, -82.7929, -49.4574, -36.444, 15.4182, 103.25, 50.6663, 29.8366, -29.6055, -42.5885, -33.4865, -2.67053, -15.2044, -21.2079, 13.0981, 14.192, -0.813573, -3.4121, 3.57372, 14.1716, 5.1374, 2.56653, 8.24215, 12.3763, 15.8086, 15.1211, -2.69162, -0.976254, 17.5926, 23.5114, 5.44098, -0.183265, 1.39543, 4.54261, 6.62746, 6.9544, 4.33297, -26.8669, -27.7106, -3.45315, 8.61019, 21.2189, 6.19781, 19.3037, 16.4412, -4.44575, -13.9489, -17.296, 15.7837, 47.0844, 49.7636, 54.4846, 67.8583, 61.699, 45.8088, 21.5958, 17.846, 6.76353, -1.64363, 3.3317, 22.4982, 25.961, 63.7315, 51.6694, 20.1275, 13.3438, 13.162, 12.7574, 21.9712, 37.9199, 40.222, 34.2771, 26.8315, 21.2319, 14.8027, 13.2859, 10.6663, 9.88471, 9.33138, 9.92838, 11.2968, 12.8141, 16.9905, 34.3923, 13.8187, -6.63058, -3.92896, -29.4978, -19.7778, -18.9813, -19.6958, -23.8817, -24.1559, -21.4563, -46.4699, -56.5564, -53.6505, -43.9676, -32.712, -23.3297, -14.3233, -7.71742, -1.12804, 4.21819, 8.77622, 13.0709, 16.6327, 18.494, 19.7626, 21.5508, 21.3554, 21.8359, 21.2556, 19.9387, 18.9782, 17.1328, 15.4782, 13.79, 9.7671, -0.689861, -11.7119, -15.7583, -22.7004, -18.7793, -19.9478, -25.6698, -30.1872, -30.9788, 8.43726, 7.96435, -7.30683, -10.7556, -10.549, -2.64274, -18.6467, -42.3411, -33.2616, -19.8431, -15.483, -18.8274, -50.4828, -58.6551, -60.8996, -44.6498, -36.9631, -35.1474, -9.27202, -5.97257, -6.68162, -0.312557, 2.4124, -0.401023, -24.4176, -34.6571, -36.88, -25.576, 9.19891, 39.2969, 9.48786, 3.90114, -2.42139, -5.04643, -8.85393, -15.762, -22.4873, -25.2219, -27.1694, -33.7042, -39.2949, -45.0883, -50.0518, -52.3668, -55.6049, -56.9978, -58.0007, -58.1796, -56.4251, -54.2735, -52.0001, -48.6046, -44.9107, -40.7133, -36.5865, -32.8478, -27.7421, -23.6557, -19.6079, -15.1306, -11.3073, -7.4056, -3.9814, -0.811286, 2.59407, 5.43373, 8.2059, 11.9338, 30.1144, 6.89427, -13.5217, -31.2708, -14.8806, -10.9989, -10.7348, -13.1363, -20.4972, -20.6785, -33.847, -51.5805, -51.9824, -41.4831, -28.3983, -17.241, -7.54979, -0.992417, 3.48901, 7.63898, 8.5045, 9.17523, 9.18032, 8.85004, 7.75392, 7.27365, 7.23979, 5.67435, 4.72162, 4.19456, 2.60756, 0.784965, -1.23301, -4.96635, -29.2382, -38.9854, -40.0329, -22.1663, 32.7715, 14.3491, 1.90349, 26.4612, 55.0629, 93.446, 80.7165, 60.9019, 38.615, 40.0433, 36.4126, 42.1131, 52.5444, 52.3622, 57.9142, 38.9708, 28.57, 9.4203, -2.11834, -10.0687, -1.13383, 8.64525, 46.9525, 72.9376, 41.5801, 33.4229, 27.6956, 25.0358, 19.7517, 12.389, 13.618, 20.1887, 21.0352, 18.95, 16.1366, 12.4567, 9.17712, 7.63177, 6.75919, 6.38179, 8.18662, 9.61077, 11.9182, 14.0127, 16.8546, 19.5848, 22.6392, 26.4563, 29.1487, 31.6859, 35.3048, 37.3667, 40.1655, 44.7095, 65.4448, 43.2857, 13.7641, -1.16074, 8.01963, 11.5675, 12.2382, 11.1526, 6.53915, 0.725575, -0.0498778, -13.4385, -40.3134, -52.6587, -52.9418, -45.7932, -36.4535, -26.6388, -19.843, -12.7203, -7.51042, -4.06206, -1.53113, 0.50777, 1.76152, 2.74485, 2.70078, 3.46741, 3.79128, 3.97331, 3.80044, 4.09342, 3.3506, 2.65098, 1.0087, -0.499506, -1.57226, -3.71711, -5.86284, -6.6813, -8.46269, -10.6605, -12.4703, -14.1273, -15.6094, -18.1897, -20.0468, -24.0101, -29.2979
15, 477.68, 205034, 0.019874, 0.861512, 0.0296568, 0.0194024, 0.0257582, 2.38932, 16.0476, 38.2249, -9.47401, -24.0503, -40.0514, -64.0409, -30.7704, -25.9981, 10.5305, 95.3294, 46.472, 27.5741, -31.7179, -35.0767, -31.5246, -15.9064, -22.3066, -22.0157, 9.47831, 9.33027, -5.26901, -7.6025, -0.547642, 0.712078, -4.18063, 1.77889, 12.1695, 12.3847, 10.2994, 9.3831, -2.53885, 2.02979, 20.6926, 26.3377, 8.24037, 2.81811, 4.71867, 8.21675, 10.6176, 11.1833, 8.6968, -22.0052, -13.5738, 5.63171, 10.938, 3.33587, -3.44978, 6.34215, -1.27534, -11.0209, -15.203, -13.9395, 11.5298, 40.5065, 44.2335, 49.5473, 60.1469, 45.9088, 34.7393, 19.7109, 18.9784, 8.47348, 7.87674, 10.2891, 25.4988, 20.0197, 49.3457, 42.331, 10.9093, 7.17607, 11.7537, 13.2425, 17.9845, 30.6071, 33.8839, 29.9545, 23.938, 19.0505, 12.8267, 11.2073, 8.31676, 7.18882, 6.27597, 6.54291, 7.6401, 8.96499, 13.0403, 28.076, 0.287552, -14.0605, -1.33139, -9.04724, 0.657874, -0.479689, -4.51309, -12.2375, -13.7292, -9.46148, -34.1069, -46.7299, -47.2683, -40.3879, -30.9681, -22.619, -14.0756, -7.54779, -0.781026, 4.91086, 9.92362, 14.741, 18.8638, 21.3025, 23.1478, 25.4983, 25.8398, 26.8223, 26.7012, 25.7942, 25.1884, 23.638, 22.215, 20.6918, 16.7657, 6.33474, -1.40971, 0.69415, -9.66481, -16.3248, -20.4461, -25.4025, -28.9997, -29.3144, 10.1283, -1.17499, -16.7047, -15.4969, -16.4534, -13.6812, -30.5118, -43.0285, -28.9482, -14.5499, -9.91858, -13.1464, -44.145, -45.3013, -47.1904, -41.9105, -37.8494, -35.9589, -10.0001, -13.5102, -19.962, -5.52599, 3.17317, 2.06181, -18.056, -23.1673, -31.0718, -25.1899, -4.02016, 28.8724, 0.227042, -4.01606, -7.7406, -6.99072, -8.2176, -15.6208, -25.7836, -31.2301, -32.9536, -37.4064, -40.6411, -44.5503, -48.2451, -49.8252, -52.7367, -54.1007, -55.2881, -55.8033, -54.4922, -52.8585, -51.1534, -48.3578, -45.2809, -41.7055, -38.1964, -35.0623, -30.541, -27.0127, -23.4909, -19.5027, -16.1272, -12.6282, -9.55825, -6.69092, -3.53457, -0.888172, 1.74805, 5.39834, 23.5751, -9.32034, -25.5029, -39.7416, -2.24482, 2.87144, 1.05465, -4.88118, -15.634, -16.0701, -27.0815, -45.2292, -49.0209, -42.2375, -31.8924, -22.4159, -13.6062, -7.38794, -2.88967, 1.50778, 2.76807, 3.92442, 4.46653, 4.69605, 4.16093, 4.22598, 4.70831, 3.61881, 3.09269, 2.9354, 1.65512, 0.0714214, -1.77917, -5.4192, -29.482, -29.5444, -33.0189, -21.2876, 35.5054, 25.4998, 11.7914, 28.8683, 58.8448, 99.8528, 92.8178, 75.0646, 40.715, 37.7911, 34.321, 40.3105, 47.3709, 40.1499, 53.3299, 43.0599, 34.3664, 15.3309, 11.7947, 0.562592, 3.34076, 6.70495, 46.3635, 78.3119, 47.4251, 40.6205, 37.8481, 38.8688, 34.9717, 23.159, 16.6232, 18.3088, 18.1575, 16.7963, 14.9302, 11.9111, 8.93676, 7.40079, 6.31939, 5.58104, 6.92357, 7.82217, 9.56968, 11.0921, 13.3674, 15.5508, 18.0902, 21.4336, 23.7021, 25.8721, 29.186, 31.01, 33.641, 38.0898, 58.8237, 26.7767, 1.50145, -9.20236, 21.5752, 26.016, 25.2869, 21.7355, 14.0305, 5.79724, 4.91491, -6.71016, -32.9052, -47.098, -50.563, -46.4978, -39.5321, -31.3256, -25.5074, -18.8903, -13.8446, -10.3159, -7.52888, -5.10716, -3.37884, -1.85466, -1.31062, 0.0767679, 1.04255, 1.87823, 2.36292, 3.3107, 3.21401, 3.14667, 2.11802, 1.20061, 0.691895, -0.919285, -2.56495, -2.91999, -4.27729, -6.09272, -7.56422, -8.92864, -10.1657, -12.5498, -14.2606, -18.1284, -23.3719
16, 480.149, 207120, 0.0189189, 0.867315, 0.0447325, 0.0195749, 0.0251392, 2.41361, 13.5206, 35.6099, -11.9309, -22.7292, -27.6736, -50.1695, -16.9194, -14.9356, 9.15002, 86.2269, 39.8765, 22.5547, -36.615, -36.6983, -34.8345, -22.7433, -27.1938, -23.6604, 10.2424, 10.9349, -3.55085, -5.95523, 1.04901, -0.730085, -4.33719, 3.87487, 15.9402, 14.9313, 10.9698, 8.84957, -3.27594, 1.04185, 19.4842, 25.1052, 7.13761, 1.92578, 4.06296, 7.78731, 10.3794, 11.0847, 8.6759, -21.8709, -10.8284, 6.80302, 10.0137, -6.84521, -11.1312, -2.3722, -11.7106, -16.943, -19.4901, -16.9281, 7.72872, 37.9722, 42.9739, 48.7663, 58.5, 41.3452, 29.4605, 16.3806, 16.7997, 6.5934, 8.33641, 10.0586, 24.5606, 15.9617, 37.9563, 33.4729, 2.13147, -0.655191, 5.34658, 7.51437, 12.1882, 26.0966, 31.5422, 29.3465, 24.3624, 19.9848, 13.9454, 12.3214, 9.32354, 8.03974, 6.95793, 7.06656, 8.03223, 9.26321, 13.2891, 27.5899, -1.83992, -14.1925, 1.74967, 4.21583, 13.9264, 12.1874, 7.14396, -1.60224, -3.56872, 0.299731, -25.9148, -41.072, -44.0337, -38.9378, -30.6609, -22.9696, -14.7508, -8.32545, -1.51386, 4.3201, 9.5386, 14.6021, 18.9949, 21.7151, 23.844, 26.4727, 27.0809, 28.3135, 28.4219, 27.7199, 27.2919, 25.8895, 24.5826, 23.1424, 19.2649, 8.84701, 2.11527, 5.78822, -6.57108, -16.117, -20.1159, -24.1251, -27.0613, -27.0633, 12.3966, -2.35329, -17.9823, -15.5075, -16.8263, -15.6591, -33.0863, -43.0421, -27.5512, -12.6646, -7.7931, -10.9075, -41.7015, -40.8177, -43.6319, -41.6836, -37.8688, -35.453, -9.39964, -15.0838, -24.6769, -9.51454, 1.2606, 1.03238, -17.886, -22.1221, -31.7535, -27.5952, -14.0674, 20.1725, -7.61467, -11.4396, -14.3681, -12.6528, -13.2861, -20.9406, -31.6179, -36.6137, -36.7431, -39.2183, -40.7158, -43.3371, -46.1717, -47.2303, -49.87, -51.1414, -52.364, -53.0052, -51.8845, -50.4866, -49.0483, -46.5399, -43.7621, -40.4911, -37.2861, -34.4512, -30.2202, -26.9699, -23.7107, -19.9672, -16.816, -13.5189, -10.6267, -7.91144, -4.88022, -2.33097, 0.236892, 3.84813, 22.023, -13.4972, -27.1602, -40.3058, 5.84151, 11.6764, 9.2135, 2.22862, -9.34958, -9.62517, -20.4048, -39.8643, -46.0303, -41.4745, -32.7295, -24.2527, -15.9985, -10.0332, -5.5872, -1.11032, 0.315015, 1.69062, 2.48413, 2.98121, 2.71775, 3.04924, 3.78537, 2.93093, 2.61622, 2.64263, 1.51499, 0.0503417, -1.71675, -5.31022, -29.3079, -26.7349, -31.973, -22.0498, 35.8933, 28.1427, 13.5052, 28.5294, 59.2505, 101.447, 96.1206, 78.1131, 40.124, 36.9214, 34.1066, 40.3751, 46.3908, 37.3426, 53.5149, 45.6974, 37.3351, 18.2925, 17.0453, 3.43078, 4.13294, 5.56469, 46.3239, 80.3456, 49.6358, 43.2521, 41.3768, 43.3578, 39.3395, 25.5226, 16.5848, 17.3166, 17.4958, 16.8641, 15.6342, 13.0265, 10.2516, 8.75064, 7.58575, 6.68172, 7.80356, 8.44666, 9.91907, 11.1585, 13.1524, 15.0632, 17.3451, 20.4514, 22.5073, 24.493, 27.6537, 29.358, 31.9046, 36.3056, 57.0388, 22.3323, -0.395046, -9.78542, 30.5422, 35.5366, 34.372, 30.0677, 21.488, 12.715, 11.9636, 0.582389, -26.3026, -42.2491, -47.8257, -45.6289, -40.0735, -32.8338, -27.6266, -21.355, -16.4622, -12.9473, -10.0735, -7.49184, -5.55017, -3.77369, -2.94918, -1.26146, 0.0180112, 1.17544, 1.98556, 3.25874, 3.48415, 3.73282, 3.01148, 2.39041, 2.165, 0.822159, -0.571847, -0.693486, -1.83707, -3.45971, -4.76055, -5.97736, -7.09076, -9.37579, -11.0128, -14.8323, -20.0534
17, 480.56, 207662, 0.0185504, 0.869359, 0.0516043, 0.0198586, 0.025048, 2.41993, 12.864, 35.0881, -12.4091, -22.168, -22.8207, -44.78, -11.5404, -10.3068, 8.9173, 82.6204, 37.5766, 20.9884, -38.1261, -37.2907, -35.8652, -24.4371, -28.3706, -23.748, 11.1048, 11.8358, -2.85262, -5.41022, 1.5318, -1.07266, -4.34563, 4.43456, 16.9831, 15.6546, 11.1664, 8.56068, -3.76479, 0.542409, 19.0563, 24.7911, 6.95677, 1.88209, 4.14919, 7.98796, 10.6726, 11.4439, 9.07133, -21.4351, -9.81083, 7.17197, 9.83951, -10.0476, -13.714, -5.22359, -15.0488, -18.6507, -20.7791, -18.0026, 6.34118, 37.0081, 42.4235, 48.3691, 57.8771, 39.8527, 27.3911, 14.9361, 15.8742, 5.81455, 8.14127, 9.53996, 23.8579, 14.3894, 33.4818, 30.1547, -1.15091, -3.69244, 2.66161, 4.9635, 9.68992, 24.1841, 30.462, 28.8979, 24.2763, 20.0663, 14.0747, 12.4294, 9.37344, 8.01523, 6.85622, 6.89399, 7.80145, 8.99114, 12.9954, 27.1057, -2.53619, -14.1457, 2.63547, 8.68435, 18.3909, 16.4958, 11.1968, 2.21915, 0.184367, 3.93012, -22.8611, -38.9311, -42.759, -38.299, -30.4259, -22.9616, -14.8469, -8.44307, -1.59796, 4.30607, 9.61858, 14.7912, 19.3019, 22.1439, 24.3949, 27.1429, 27.8652, 29.2046, 29.4108, 28.7963, 28.4439, 27.1045, 25.8471, 24.4421, 20.5853, 10.1729, 3.70203, 7.68012, -5.58661, -16.0978, -19.9875, -23.637, -26.3321, -26.222, 13.2441, -2.4397, -18.1014, -15.3513, -16.7643, -16.0213, -33.6948, -43.0349, -27.0653, -11.942, -6.93783, -9.98978, -40.7306, -39.3566, -42.7455, -41.8561, -37.9927, -35.3384, -9.24541, -15.5105, -26.298, -11.2788, 0.254165, 0.405367, -18.2054, -22.4349, -32.607, -28.901, -18.1007, 16.8401, -10.5674, -14.2837, -17.009, -15.0674, -15.6168, -23.4262, -34.2354, -38.9461, -38.3825, -40.0556, -40.8645, -42.9801, -45.4796, -46.3373, -48.8753, -50.1166, -51.3602, -52.0588, -51.0217, -49.7255, -48.4016, -46.0158, -43.3654, -40.2239, -37.148, -34.4401, -30.3323, -27.1998, -24.052, -20.4121, -17.356, -14.1445, -11.3276, -8.67681, -5.69862, -3.19054, -0.65164, 2.94306, 21.1171, -14.9765, -27.5756, -40.437, 8.38916, 14.4942, 11.864, 4.62121, -7.09965, -7.21451, -17.9296, -37.9375, -45.0282, -41.328, -33.1966, -25.1024, -17.0586, -11.1853, -6.75227, -2.23606, -0.737236, 0.733514, 1.63499, 2.24635, 2.0986, 2.54338, 3.38729, 2.63261, 2.40758, 2.51189, 1.44897, 0.0347894, -1.69691, -5.27065, -29.2514, -26.097, -32.1087, -22.6329, 35.7878, 28.5257, 13.4843, 28.0434, 59.0599, 101.701, 96.8009, 78.4742, 39.4279, 36.3653, 33.8759, 40.2683, 46.0136, 36.578, 53.7684, 46.6514, 38.364, 19.315, 18.6081, 3.9567, 4.00484, 4.94833, 46.2052, 80.9073, 50.2626, 43.9882, 42.3398, 44.5209, 40.3185, 25.7725, 16.121, 16.682, 17.0941, 16.7866, 15.8155, 13.3671, 10.6638, 9.16789, 7.96052, 6.98121, 8.00592, 8.53815, 9.89212, 11.0103, 12.8838, 14.6784, 16.8507, 19.856, 21.8216, 23.7289, 26.8245, 28.478, 30.9888, 35.3695, 56.1023, 20.8209, -0.844967, -9.89416, 33.4882, 38.6928, 37.4152, 32.9195, 24.138, 15.2938, 14.666, 3.36121, -23.8408, -40.4945, -46.896, -45.4231, -40.4134, -33.5473, -28.5752, -22.4344, -17.5963, -14.0806, -11.1657, -8.51346, -6.47954, -4.59494, -3.65081, -1.83533, -0.422636, 0.871308, 1.81942, 3.23051, 3.59241, 3.97495, 3.38379, 2.88826, 2.78284, 1.55365, 0.266233, 0.243446, -0.809616, -2.35061, -3.57916, -4.73346, -5.79447, -8.03757, -9.64327, -13.4424, -18.654
18, 480.62, 207865, 0.0183876, 0.870174, 0.0546607, 0.0200135, 0.0250187, 2.4223, 12.6176, 34.9708, -12.5089, -21.8742, -20.7588, -42.5472, -9.31279, -8.36087, 8.85192, 81.133, 36.7025, 20.4399, -38.6504, -37.4578, -36.1967, -24.9711, -28.7087, -23.6344, 11.5988, 12.2637, -2.56872, -5.21941, 1.68681, -1.23689, -4.38452, 4.60365, 17.3324, 15.8836, 11.1877, 8.36309, -4.04851, 0.296267, 18.8854, 24.7002, 6.94326, 1.94084, 4.27298, 8.16742, 10.8963, 11.699, 9.34349, -21.1479, -9.31325, 7.39888, 9.86303, -11.2154, -14.6513, -6.2616, -16.2741, -19.2185, -21.1903, -18.3434, 5.85313, 36.6489, 42.2028, 48.1999, 57.6231, 39.2492, 26.4939, 14.3086, 15.4923, 5.50301, 8.04767, 9.3232, 23.5724, 13.7721, 31.6453, 28.8433, -2.44654, -4.89617, 1.58945, 3.94248, 8.6956, 23.4171, 30.0101, 28.6812, 24.1901, 20.035, 14.0518, 12.3884, 9.30053, 7.90489, 6.70835, 6.7123, 7.59225, 8.76253, 12.7566, 26.7956, -2.90515, -14.2084, 2.88574, 10.3714, 20.0749, 18.1213, 12.727, 3.66516, 1.60998, 5.31469, -21.6907, -38.1041, -42.2591, -38.0384, -30.315, -22.9313, -14.849, -8.44495, -1.57777, 4.36287, 9.72147, 14.9461, 19.5121, 22.4108, 24.7182, 27.5211, 28.2957, 29.6841, 29.9351, 29.3605, 29.0427, 27.732, 26.4971, 25.1083, 21.2608, 10.8511, 4.47769, 8.55838, -5.09592, -16.0163, -19.8874, -23.411, -26.0205, -25.871, 13.5971, -2.4502, -18.1264, -15.2775, -16.7258, -16.1447, -33.9385, -43.0448, -26.8478, -11.5993, -6.52472, -9.54416, -40.265, -38.7117, -42.3506, -41.8884, -38.0134, -35.2701, -9.16217, -15.6481, -26.9554, -12.046, -0.177447, 0.148071, -18.3477, -22.5931, -32.9727, -29.4365, -19.7473, 15.5345, -11.7055, -15.381, -18.0305, -16.0066, -16.5313, -24.4079, -35.27, -39.8673, -39.0301, -40.3868, -40.9246, -42.8422, -45.2121, -45.9946, -48.4977, -49.7332, -50.992, -51.7209, -50.7246, -49.477, -48.2067, -45.8778, -43.2862, -40.2043, -37.1876, -34.5378, -30.4863, -27.4076, -24.3106, -20.718, -17.7051, -14.5326, -11.75, -9.1285, -6.17442, -3.68506, -1.15934, 2.42783, 20.6015, -15.6949, -27.8484, -40.6033, 9.26052, 15.4761, 12.7832, 5.44544, -6.32091, -6.36057, -17.0405, -37.2559, -44.7047, -41.3382, -33.4458, -25.499, -17.5335, -11.6907, -7.25603, -2.71682, -1.18106, 0.335409, 1.28771, 1.95228, 1.85803, 2.35496, 3.24835, 2.53936, 2.35535, 2.49525, 1.46188, 0.0707319, -1.64483, -5.20956, -29.1839, -25.8226, -32.1579, -22.8508, 35.7466, 28.6577, 13.4491, 27.8325, 58.9614, 101.78, 97.0384, 78.5692, 39.1148, 36.1139, 33.7531, 40.1937, 45.8377, 36.2607, 53.847, 47.0132, 38.7687, 19.7213, 19.2113, 4.13354, 3.92548, 4.68591, 46.1344, 81.1132, 50.4992, 44.2659, 42.7018, 44.953, 40.6675, 25.8306, 15.9029, 16.4013, 16.9059, 16.7241, 15.8511, 13.4601, 10.7785, 9.27727, 8.04522, 7.02787, 8.0057, 8.48556, 9.78423, 10.8462, 12.6643, 14.4055, 16.5275, 19.4866, 21.4108, 23.2824, 26.3483, 27.9786, 30.473, 34.8445, 55.5772, 20.0933, -1.12908, -10.0503, 34.5286, 39.8201, 38.5, 33.933, 25.0787, 16.2155, 15.6453, 4.37744, -22.9437, -39.8714, -46.5951, -45.4058, -40.6098, -33.8889, -29.0063, -22.9128, -18.0909, -14.5687, -11.6308, -8.94324, -6.86504, -4.92956, -3.92976, -2.05524, -0.581266, 0.775269, 1.7865, 3.26058, 3.68473, 4.12828, 3.59639, 3.15798, 3.10714, 1.92963, 0.690666, 0.712803, -0.29913, -1.80303, -2.99875, -4.12466, -5.16188, -7.38592, -8.97742, -12.7672, -17.9746
19, 480.555, 207845, 0.0183911, 0.870137, 0.0547923, 0.0200261, 0.0250351, 2.42207, 12.6411, 35.0294, -12.4501, -21.8414, -20.6677, -42.4559, -9.22182, -8.24901, 8.88977, 81.0966, 36.705, 20.4609, -38.6281, -37.4565, -36.1797, -24.9396, -28.6939, -23.6105, 11.6602, 12.3022, -2.55782, -5.22295, 1.67844, -1.22466, -4.38423, 4.59399, 17.326, 15.8884, 11.2013, 8.35206, -4.0864, 0.270891, 18.8833, 24.7152, 6.96875, 1.97242, 4.30806, 8.20451, 10.9345, 11.7378, 9.3826, -21.1102, -9.29618, 7.4343, 9.91754, -11.2092, -14.6645, -6.26523, -16.2669, -19.2124, -21.1989, -18.3526, 5.87668, 36.6712, 42.2139, 48.2059, 57.6371, 39.273, 26.4573, 14.2617, 15.4619, 5.47848, 8.0034, 9.30725, 23.5709, 13.7904, 31.587, 28.796, -2.49302, -4.95137, 1.52341, 3.88481, 8.67265, 23.4176, 30.0104, 28.6728, 24.1734, 20.0124, 14.0252, 12.3594, 9.27004, 7.87355, 6.67656, 6.68029, 7.56015, 8.7304, 12.7245, 26.7703, -2.91845, -14.2391, 2.83024, 10.4151, 20.1211, 18.173, 12.7876, 3.73148, 1.66663, 5.34534, -21.683, -38.1038, -42.2555, -38.028, -30.2981, -22.9095, -14.8236, -8.41715, -1.54843, 4.39314, 9.75222, 14.977, 19.543, 22.4414, 24.7485, 27.551, 28.3253, 29.7133, 29.9639, 29.3889, 29.0707, 27.7598, 26.5247, 25.1357, 21.2881, 10.8783, 4.49559, 8.56209, -5.0771, -15.9796, -19.858, -23.394, -26.012, -25.8667, 13.6012, -2.42589, -18.1032, -15.2651, -16.7101, -16.1165, -33.9337, -43.0808, -26.8754, -11.6132, -6.5311, -9.54753, -40.2703, -38.7354, -42.364, -41.8702, -37.9915, -35.2525, -9.14539, -15.6134, -26.9479, -12.108, -0.240016, 0.093955, -18.4129, -22.658, -33.0078, -29.4566, -19.8108, 15.4559, -11.7773, -15.4567, -18.1135, -16.0976, -16.6235, -24.4855, -35.319, -39.889, -39.0365, -40.389, -40.9284, -42.8496, -45.2232, -46.0087, -48.514, -49.7512, -51.011, -51.7406, -50.7446, -49.497, -48.2266, -45.8974, -43.3055, -40.2231, -37.2059, -34.5556, -30.5035, -27.4244, -24.3268, -20.7337, -17.7204, -14.5475, -11.7645, -9.14267, -6.18833, -3.69877, -1.1729, 2.41435, 20.588, -15.6843, -27.8583, -40.6233, 9.26585, 15.4924, 12.8056, 5.47719, -6.28391, -6.33414, -17.0365, -37.2667, -44.7164, -41.3437, -33.4443, -25.4915, -17.5218, -11.676, -7.23945, -2.69909, -1.16272, 0.354002, 1.3063, 1.9707, 1.87617, 2.37275, 3.26576, 2.5564, 2.37203, 2.5116, 1.47795, 0.0865796, -1.62914, -5.19396, -29.1689, -25.8311, -32.1492, -22.8284, 35.7391, 28.6307, 13.4331, 27.8271, 58.9407, 101.746, 96.9881, 78.5261, 39.1167, 36.1278, 33.7647, 40.2036, 45.8572, 36.2908, 53.8322, 46.9745, 38.732, 19.6862, 19.1558, 4.10577, 3.91992, 4.69676, 46.1162, 81.0757, 50.4622, 44.2249, 42.6527, 44.8957, 40.6138, 25.7998, 15.9003, 16.4139, 16.9204, 16.7343, 15.8559, 13.4603, 10.7753, 9.27172, 8.03811, 7.01983, 7.99716, 8.47685, 9.77557, 10.8378, 12.6561, 14.3976, 16.52, 19.4795, 21.4041, 23.276, 26.3422, 27.9727, 30.4673, 34.8388, 55.5715, 20.1119, -1.13224, -10.0656, 34.5531, 39.8532, 38.5372, 33.9771, 25.1301, 16.2687, 15.6882, 4.39982, -22.9403, -39.8773, -46.6015, -45.4083, -40.6072, -33.8816, -28.9953, -22.8991, -18.0751, -14.5516, -11.6128, -8.92479, -6.8464, -4.91097, -3.91139, -2.03721, -0.563679, 0.792343, 1.80301, 3.27649, 3.70003, 4.14295, 3.61044, 3.17142, 3.11999, 1.94191, 0.702409, 0.724043, -0.288355, -1.79268, -2.98877, -4.115, -5.1525, -7.37676, -8.96842, -12.7583, -17.9657
20, 480.531, 207841, 0.0183924, 0.870121, 0.0548135, 0.0200305, 0.0250403, 2.42202, 12.647, 35.0519, -12.4277, -21.8258, -20.6471, -42.442, -9.20807, -8.22983, 8.89874, 81.0975, 36.7152, 20.475, -38.6138, -37.4474, -36.1668, -24.923, -28.6814, -23.5961, 11.6796, 12.3107, -2.55886, -5.22859, 1.67129, -1.22685, -4.38943, 4.58611, 17.3184, 15.8836, 11.1985, 8.34291, -4.09994, 0.264271, 18.8853, 24.7229, 6.97973, 1.98523, 4.32186, 8.21883, 10.9491, 11.7525, 9.39735, -21.0958, -9.28577, 7.4515, 9.93955, -11.1968, -14.6565, -6.2548, -16.2536, -19.2035, -21.1936, -18.3456, 5.89211, 36.682, 42.2187, 48.2083, 57.6415, 39.2795, 26.4484, 14.2513, 15.4566, 5.47483, 7.99521, 9.30937, 23.5768, 13.8016, 31.5823, 28.7929, -2.49604, -4.95656, 1.51585, 3.88074, 8.67781, 23.4256, 30.0139, 28.6706, 24.1668, 20.0029, 14.014, 12.3472, 9.25729, 7.8605, 6.66338, 6.66706, 7.54692, 8.71719, 12.7113, 26.7588, -2.92941, -14.2565, 2.8065, 10.413, 20.1196, 18.173, 12.7897, 3.73443, 1.66596, 5.33777, -21.6941, -38.1128, -42.2597, -38.0275, -30.2939, -22.9026, -14.8151, -8.40745, -1.53803, 4.40391, 9.76316, 14.988, 19.5539, 22.4521, 24.759, 27.5613, 28.3354, 29.7231, 29.9735, 29.3983, 29.08, 27.7689, 26.5337, 25.1446, 21.297, 10.8872, 4.5021, 8.56609, -5.06537, -15.9627, -19.8461, -23.3884, -26.0103, -25.867, 13.6008, -2.42188, -18.0996, -15.2635, -16.7077, -16.1111, -33.9357, -43.0936, -26.8845, -11.6178, -6.53326, -9.54878, -40.272, -38.7414, -42.3632, -41.8589, -37.9813, -35.2453, -9.13867, -15.6022, -26.9441, -12.1227, -0.25517, 0.0808842, -18.4287, -22.6704, -33.0102, -29.4552, -19.818, 15.4431, -11.789, -15.4694, -18.128, -16.1137, -16.6389, -24.4954, -35.3204, -39.8842, -39.0305, -40.3852, -40.9279, -42.8522, -45.2283, -46.0156, -48.5223, -49.7604, -51.0208, -51.7506, -50.7548, -49.5072, -48.2368, -45.9074, -43.3153, -40.2326, -37.2152, -34.5646, -30.5123, -27.4328, -24.335, -20.7416, -17.7281, -14.5549, -11.7718, -9.1498, -6.19532, -3.70565, -1.17971, 2.40759, 20.5813, -15.6862, -27.8703, -40.6379, 9.25629, 15.4855, 12.8001, 5.47396, -6.28674, -6.3415, -17.0504, -37.2821, -44.7282, -41.3504, -33.4464, -25.4904, -17.5183, -11.6711, -7.23358, -2.69268, -1.15604, 0.360769, 1.31303, 1.97731, 1.88262, 2.379, 3.27181, 2.56224, 2.37767, 2.51707, 1.48327, 0.0917839, -1.62402, -5.18889, -29.164, -25.8309, -32.1405, -22.8169, 35.7385, 28.6263, 13.4339, 27.8289, 58.9362, 101.735, 96.9742, 78.5177, 39.1229, 36.1349, 33.7692, 40.2069, 45.8629, 36.2976, 53.8225, 46.9578, 38.7168, 19.6717, 19.1369, 4.09985, 3.92178, 4.70245, 46.1097, 81.0624, 50.4491, 44.2109, 42.6366, 44.8782, 40.5992, 25.7943, 15.9042, 16.4214, 16.9265, 16.7374, 15.8561, 13.4582, 10.7715, 9.26689, 8.03262, 7.01397, 7.99114, 8.47081, 9.76961, 10.8319, 12.6505, 14.3922, 16.5148, 19.4745, 21.3993, 23.2714, 26.3377, 27.9683, 30.463, 34.8346, 55.5673, 20.1125, -1.14209, -10.0786, 34.5483, 39.8504, 38.5354, 33.9769, 25.1315, 16.2696, 15.685, 4.39041, -22.9536, -39.8903, -46.6113, -45.4141, -40.6094, -33.881, -28.9925, -22.8948, -18.0698, -14.5456, -11.6063, -8.91812, -6.83967, -4.90428, -3.90483, -2.03085, -0.557559, 0.798187, 1.80855, 3.28172, 3.70494, 4.14753, 3.6147, 3.17536, 3.12362, 1.94524, 0.705462, 0.726834, -0.285804, -1.79034, -2.98663, -4.11303, -5.15066, -7.37504, -8.96679, -12.7568, -17.9642
21, 480.529, 207840, 0.0183926, 0.870119, 0.0548117, 0.0200309, 0.0250407, 2.42201, 12.6471, 35.0538, -12.4259, -21.8242, -20.6472, -42.4433, -9.2094, -8.23101, 8.89886, 81.0993, 36.7171, 20.4768, -38.6119, -37.4457, -36.165, -24.9211, -28.6796, -23.5943, 11.6808, 12.3107, -2.55943, -5.22944, 1.67036, -1.22773, -4.39038, 4.58506, 17.3173, 15.8825, 11.1974, 8.34159, -4.10103, 0.263984, 18.8856, 24.7237, 6.98071, 1.9863, 4.32297, 8.21995, 10.9502, 11.7536, 9.39846, -21.0947, -9.28451, 7.45342, 9.94159, -11.1945, -14.6543, -6.25248, -16.2512, -19.202, -21.1922, -18.3438, 5.89432, 36.6834, 42.2193, 48.2086, 57.6419, 39.28, 26.4483, 14.2513, 15.4568, 5.47511, 7.99547, 9.31056, 23.5782, 13.8032, 31.5841, 28.7943, -2.49458, -4.95515, 1.51728, 3.88255, 8.68002, 23.4273, 30.0148, 28.6707, 24.1664, 20.0022, 14.0131, 12.3462, 9.25624, 7.85944, 6.66231, 6.66599, 7.54586, 8.71613, 12.7102, 26.7578, -2.93093, -14.2586, 2.80419, 10.4106, 20.1173, 18.1707, 12.7874, 3.73208, 1.66326, 5.33478, -21.6968, -38.1148, -42.2609, -38.028, -30.294, -22.9023, -14.8146, -8.40684, -1.53735, 4.40463, 9.76389, 14.9887, 19.5546, 22.4528, 24.7597, 27.562, 28.336, 29.7237, 29.974, 29.3988, 29.0805, 27.7693, 26.5341, 25.145, 21.2974, 10.8876, 4.50247, 8.56662, -5.06382, -15.9608, -19.8449, -23.3878, -26.0102, -25.8671, 13.6007, -2.42198, -18.0998, -15.2636, -16.7077, -16.1111, -33.9362, -43.0946, -26.8852, -11.6182, -6.53354, -9.54901, -40.2722, -38.7416, -42.3625, -41.8573, -37.9801, -35.2444, -9.13785, -15.6012, -26.9435, -12.1229, -0.255482, 0.0805915, -18.429, -22.67, -33.009, -29.4539, -19.8165, 15.444, -11.7882, -15.4686, -18.1272, -16.1129, -16.6378, -24.4938, -35.3183, -39.8821, -39.0288, -40.3841, -40.9274, -42.8522, -45.2286, -46.0162, -48.5231, -49.7613, -51.0217, -51.7516, -50.7558, -49.5082, -48.2377, -45.9084, -43.3162, -40.2335, -37.2161, -34.5654, -30.513, -27.4335, -24.3357, -20.7423, -17.7288, -14.5555, -11.7724, -9.15036, -6.19587, -3.70619, -1.18023, 2.40707, 20.5807, -15.6868, -27.8722, -40.6398, 9.25421, 15.4835, 12.7981, 5.47197, -6.28891, -6.34417, -17.0534, -37.2848, -44.7302, -41.3516, -33.447, -25.4905, -17.5182, -11.6708, -7.2332, -2.69225, -1.15558, 0.361231, 1.31348, 1.97775, 1.88303, 2.37938, 3.27216, 2.56256, 2.37797, 2.51735, 1.48353, 0.0920273, -1.62379, -5.18866, -29.1638, -25.8305, -32.1391, -22.8156, 35.7387, 28.6267, 13.4348, 27.8295, 58.9362, 101.735, 96.9736, 78.5179, 39.1243, 36.136, 33.7698, 40.2074, 45.8635, 36.2978, 53.8212, 46.9561, 38.7152, 19.6703, 19.1354, 4.09995, 3.92254, 4.70324, 46.1092, 81.0613, 50.448, 44.2097, 42.6354, 44.8771, 40.5986, 25.7946, 15.9052, 16.4225, 16.9273, 16.7378, 15.8561, 13.458, 10.7712, 9.26639, 8.03206, 7.01338, 7.99054, 8.47021, 9.76904, 10.8314, 12.65, 14.3917, 16.5143, 19.4741, 21.3989, 23.271, 26.3374, 27.968, 30.4627, 34.8342, 55.567, 20.112, -1.14385, -10.0804, 34.5463, 39.8484, 38.5334, 33.975, 25.1296, 16.2675, 15.6824, 4.38746, -22.9566, -39.8927, -46.6131, -45.4153, -40.6101, -33.8813, -28.9925, -22.8946, -18.0695, -14.5452, -11.6059, -8.91767, -6.83921, -4.90384, -3.90441, -2.03045, -0.557197, 0.798513, 1.80884, 3.28197, 3.70514, 4.14769, 3.61482, 3.17544, 3.12366, 1.94525, 0.705429, 0.726769, -0.2859, -1.79047, -2.98678, -4.1132, -5.15085, -7.37524, -8.967, -12.757, -17.9644
22, 480.529, 207841, 0.0183926, 0.870119, 0.0548113, 0.0200309, 0.0250407, 2.42201, 12.6471, 35.0538, -12.4259, -21.8242, -20.6474, -42.4436, -9.20968, -8.23133, 8.89878, 81.0995, 36.7173, 20.4769, -38.6119, -37.4456, -36.1649, -24.921, -28.6795, -23.5942, 11.6807, 12.3107, -2.55949, -5.22949, 1.67031, -1.22782, -4.39045, 4.58501, 17.3172, 15.8824, 11.1973, 8.34152, -4.10102, 0.264018, 18.8857, 24.7237, 6.98071, 1.9863, 4.32297, 8.21995, 10.9502, 11.7536, 9.39845, -21.0947, -9.28445, 7.45348, 9.94161, -11.1944, -14.6541, -6.25232, -16.2511, -19.2019, -21.1921, -18.3436, 5.89442, 36.6834, 42.2194, 48.2087, 57.6419, 39.2799, 26.4484, 14.2514, 15.4569, 5.47519, 7.99559, 9.31069, 23.5783, 13.8032, 31.5843, 28.7945, -2.49438, -4.95494, 1.51753, 3.88281, 8.68022, 23.4275, 30.0148, 28.6707, 24.1664, 20.0022, 14.0131, 12.3462, 9.25625, 7.85944, 6.66231, 6.666, 7.54586, 8.71614, 12.7102, 26.7578, -2.931, -14.2587, 2.80416, 10.4104, 20.1171, 18.1704, 12.7872, 3.73178, 1.66296, 5.33451, -21.697, -38.1149, -42.261, -38.028, -30.294, -22.9024, -14.8146, -8.40686, -1.53737, 4.40461, 9.76387, 14.9887, 19.5546, 22.4528, 24.7597, 27.5619, 28.336, 29.7237, 29.974, 29.3988, 29.0804, 27.7693, 26.5341, 25.145, 21.2974, 10.8876, 4.50246, 8.56665, -5.06375, -15.9607, -19.8448, -23.3878, -26.0102, -25.8671, 13.6007, -2.42204, -18.0998, -15.2636, -16.7077, -16.1111, -33.9363, -43.0946, -26.8852, -11.6182, -6.53355, -9.54902, -40.2722, -38.7416, -42.3624, -41.8572, -37.98, -35.2444, -9.13782, -15.6012, -26.9435, -12.1228, -0.255368, 0.0806886, -18.4289, -22.6698, -33.0088, -29.4537, -19.8163, 15.4442, -11.7879, -15.4684, -18.127, -16.1127, -16.6376, -24.4935, -35.3181, -39.8819, -39.0287, -40.384, -40.9273, -42.8521, -45.2286, -46.0162, -48.5231, -49.7613, -51.0217, -51.7516, -50.7558, -49.5082, -48.2377, -45.9084, -43.3162, -40.2335, -37.2161, -34.5654, -30.513, -27.4336, -24.3357, -20.7423, -17.7288, -14.5555, -11.7724, -9.15036, -6.19586, -3.70618, -1.18023, 2.40707, 20.5807, -15.6869, -27.8723, -40.6399, 9.25407, 15.4833, 12.798, 5.47178, -6.28913, -6.34441, -17.0536, -37.285, -44.7303, -41.3517, -33.447, -25.4906, -17.5182, -11.6708, -7.23322, -2.69227, -1.1556, 0.361217, 1.31347, 1.97773, 1.88301, 2.37936, 3.27214, 2.56254, 2.37795, 2.51733, 1.48351, 0.092005, -1.62381, -5.18868, -29.1638, -25.8305, -32.139, -22.8155, 35.7387, 28.6268, 13.4349, 27.8296, 58.9363, 101.735, 96.9737, 78.5181, 39.1244, 36.1361, 33.7699, 40.2074, 45.8635, 36.2978, 53.8212, 46.9561, 38.7152, 19.6702, 19.1355, 4.10003, 3.92261, 4.70327, 46.1092, 81.0613, 50.448, 44.2097, 42.6355, 44.8772, 40.5987, 25.7947, 15.9053, 16.4226, 16.9274, 16.7378, 15.8561, 13.458, 10.7712, 9.26638, 8.03205, 7.01337, 7.99053, 8.47021, 9.76903, 10.8314, 12.65, 14.3917, 16.5143, 19.4741, 21.3989, 23.271, 26.3374, 27.968, 30.4627, 34.8342, 55.567, 20.1119, -1.14396, -10.0805, 34.5461, 39.8482, 38.5332, 33.9748, 25.1294, 16.2672, 15.6821, 4.38721, -22.9568, -39.8929, -46.6132, -45.4154, -40.6102, -33.8813, -28.9926, -22.8946, -18.0695, -14.5452, -11.6059, -8.91768, -6.83923, -4.90385, -3.90442, -2.03047, -0.557215, 0.798493, 1.80882, 3.28195, 3.70512, 4.14767, 3.61479, 3.17541, 3.12363, 1.94522, 0.705398, 0.726736, -0.285933, -1.7905, -2.98681, -4.11323, -5.15089, -7.37528, -8.96704, -12.757, -17.9645
23, 480.529, 207841, 0.0183926, 0.870119, 0.0548112, 0.0200309, 0.0250407, 2.42201, 12.6471, 35.0537, -12.4259, -21.8242, -20.6474, -42.4436, -9.2097, -8.23135, 8.89877, 81.0995, 36.7173, 20.4769, -38.6119, -37.4456, -36.1649, -24.921, -28.6795, -23.5942, 11.6807, 12.3107, -2.55949, -5.22949, 1.67032, -1.22782, -4.39044, 4.58502, 17.3172, 15.8824, 11.1973, 8.34153, -4.10102, 0.264021, 18.8857, 24.7237, 6.98071, 1.9863, 4.32296, 8.21994, 10.9502, 11.7536, 9.39844, -21.0947, -9.28446, 7.45347, 9.9416, -11.1944, -14.6541, -6.25232, -16.2511, -19.2019, -21.1921, -18.3436, 5.89442, 36.6834, 42.2194, 48.2087, 57.6419, 39.2799, 26.4484, 14.2514, 15.4569, 5.47519, 7.99559, 9.31069, 23.5783, 13.8032, 31.5843, 28.7946, -2.49437, -4.95493, 1.51754, 3.88282, 8.68023, 23.4275, 30.0148, 28.6707, 24.1664, 20.0022, 14.0131, 12.3462, 9.25625, 7.85945, 6.66232, 6.666, 7.54587, 8.71614, 12.7102, 26.7578, -2.931, -14.2587, 2.80417, 10.4104, 20.117, 18.1704, 12.7872, 3.73176, 1.66295, 5.3345, -21.697, -38.1149, -42.261, -38.028, -30.294, -22.9024, -14.8146, -8.40686, -1.53738, 4.4046, 9.76386, 14.9887, 19.5546, 22.4528, 24.7597, 27.5619, 28.3359, 29.7237, 29.974, 29.3988, 29.0804, 27.7693, 26.5341, 25.145, 21.2974, 10.8876, 4.50245, 8.56665, -5.06376, -15.9607, -19.8449, -23.3878, -26.0102, -25.8671, 13.6007, -2.42204, -18.0998, -15.2636, -16.7077, -16.1111, -33.9363, -43.0946, -26.8852, -11.6182, -6.53355, -9.54902, -40.2722, -38.7416, -42.3624, -41.8572, -37.98, -35.2444, -9.13783, -15.6013, -26.9435, -12.1228, -0.255357, 0.0806977, -18.4289, -22.6698, -33.0088, -29.4537, -19.8163, 15.4442, -11.7879, -15.4684, -18.1269, -16.1127, -16.6375, -24.4935, -35.3181, -39.8819, -39.0287, -40.384, -40.9273, -42.8521, -45.2286, -46.0162, -48.5231, -49.7613, -51.0217, -51.7516, -50.7558, -49.5082, -48.2377, -45.9084, -43.3162, -40.2335, -37.2161, -34.5654, -30.513, -27.4336, -24.3357, -20.7423, -17.7288, -14.5555, -11.7724, -9.15036, -6.19586, -3.70618, -1.18023, 2.40708, 20.5808, -15.6869, -27.8723, -40.6399, 9.25407, 15.4833, 12.798, 5.47177, -6.28914, -6.34441, -17.0536, -37.285, -44.7303, -41.3516, -33.447, -25.4906, -17.5182, -11.6708, -7.23322, -2.69227, -1.1556, 0.361216, 1.31347, 1.97773, 1.88301, 2.37936, 3.27214, 2.56254, 2.37795, 2.51733, 1.48351, 0.0920037, -1.62381, -5.18868, -29.1638, -25.8305, -32.139, -22.8155, 35.7387, 28.6268, 13.4349, 27.8296, 58.9363, 101.735, 96.9737, 78.5181, 39.1244, 36.1361, 33.7699, 40.2074, 45.8635, 36.2978, 53.8212, 46.9561, 38.7152, 19.6703, 19.1355, 4.10003, 3.92262, 4.70327, 46.1092, 81.0613, 50.448, 44.2098, 42.6355, 44.8772, 40.5987, 25.7947, 15.9053, 16.4226, 16.9274, 16.7378, 15.8561, 13.458, 10.7712, 9.26638, 8.03205, 7.01337, 7.99053, 8.47021, 9.76903, 10.8314, 12.65, 14.3917, 16.5143, 19.4741, 21.3989, 23.271, 26.3374, 27.968, 30.4627, 34.8342, 55.567, 20.1119, -1.14396, -10.0805, 34.5461, 39.8482, 38.5332, 33.9748, 25.1294, 16.2672, 15.6821, 4.3872, -22.9568, -39.8929, -46.6132, -45.4154, -40.6102, -33.8813, -28.9926, -22.8946, -18.0695, -14.5452, -11.6059, -8.91768, -6.83923, -4.90385, -3.90442, -2.03047, -0.557216, 0.798492, 1.80882, 3.28194, 3.70512, 4.14767, 3.61479, 3.17541, 3.12363, 1.94522, 0.705396, 0.726734, -0.285935, -1.7905, -2.98681, -4.11324, -5.15089, -7.37528, -8.96704, -12.757, -17.9645
